LAMMPS data file via write_data, version 29 Aug 2024, timestep = 28, units = metal

500 atoms
3 atom types

0 17.551214769372386 xlo xhi
0 17.551214769372386 ylo yhi
0 17.551214769372386 zlo zhi

Masses

1 56.6411
2 55.845
3 55.845

Atoms # atomic

2 3 1.7553662542727095 1.7553662542727102 1.820763616292002e-19 0 0 0
3 1 1.7539268593107855 0.0011946176264504165 1.7526469712850161 0 0 0
4 1 0.001194617626450536 1.753926859310787 1.7526469712850166 0 0 0
5 1 3.5061755904898644 0.0011892969394325823 9.958395581711385e-19 0 0 0
8 1 3.5101799781362253 1.7558822592235348 1.7549504294749227 0 0 0
21 1 0.0011892969394320329 3.5061755904898626 0 0 0 0
23 1 1.7558822592235348 3.5101799781362244 1.7549504294749227 0 0 0
25 1 3.5071087933293237 3.5071087933293237 0 0 0 0
102 1 1.7557589389256196 1.7557589389256198 3.507779995109839 0 0 0
125 1 3.5113210952571285 3.511321095257128 3.5113939219586525 0 0 0
6 1 5.26177717317192 1.754753098817689 0 0 0 0
9 1 7.0199195430582195 0.0004652574569377794 1.5685227229801695e-18 0 0 0
12 1 7.0197645749059765 1.7550605851463346 1.7546089156084985 0 0 0
27 1 5.265948519152514 3.510936606542517 1.7555263606676998 0 0 0
29 1 7.019852350271551 3.5095967530961425 3.21653538802546e-19 0 0 0
106 1 5.262783891156049 1.7548452742554645 3.50785562562105 0 0 0
109 1 7.020151009425863 0.00029096271372019636 3.509982078404364 0 0 0
129 1 7.020121452669475 3.5098427514034096 3.510121969721396 0 0 0
10 1 8.775574552403823 1.7550682499428552 0 0 0 0
11 1 8.775403254987319 8.69802362836347e-05 1.7549774324952312 0 0 0
31 1 8.775414706929157 3.510045906062134 1.755005424271685 0 0 0
110 1 8.775484851494937 1.7550850488954175 3.5098842717154595 0 0 0
13 1 10.530761693905802 5.322699438461677e-05 0 0 0 0
14 1 12.286416703251403 1.7546562194803001 0 0 0 0
15 1 12.286571671403648 6.0891790900351386e-05 1.7546089156084983 0 0 0
16 1 10.530932991322304 1.7550344967009541 1.7549774324952292 0 0 0
33 1 10.530863385630196 3.509934579726494 0 0 0 0
35 1 12.28627890116403 3.510123461763643 1.754738565533529 0 0 0
113 1 10.530851394814688 3.642804181917719e-05 3.5098842717154595 0 0 0
114 1 12.28618523688376 1.7548305142235199 3.5099820784043643 0 0 0
133 1 10.530921676119776 3.510071871108057 3.50998704687963 0 0 0
121 1 17.55058816604265 3.5083750011898003 3.5084496088828314 -1 0 0
17 1 14.044559073137705 0.0003683781195468467 0 0 0 0
18 1 15.800160655819761 1.7539321799978052 1.2249692840611056e-16 0 0 0
20 1 14.040770905862031 1.7557300874554131 1.755327923088893 0 0 0
37 1 14.043987920497905 3.507299004501127 0 0 0 0
39 1 15.794873675604025 3.5114625707055978 1.7563057344649433 0 0 0
117 1 14.043552355153576 0.00027620268176988086 3.50785562562105 0 0 0
118 1 15.797961245119822 1.7557480802669725 3.5084496088828314 0 0 0
137 1 14.040852353117451 3.5103044882721153 3.5105604707405145 0 0 0
22 1 1.7547530988176894 5.26177717317192 7.943084173644868e-19 0 0 0
28 1 3.5109366065425163 5.265948519152513 1.7555263606676994 0 0 0
41 1 0.0004652574569373536 7.0199195430582195 4.8462269511821363e-20 0 0 0
43 1 1.7550605851463357 7.0197645749059765 1.7546089156084987 0 0 0
45 1 3.5095967530961407 7.019852350271552 4.677791014464221e-19 0 0 0
122 1 1.7548452742554668 5.26278389115605 3.50785562562105 0 0 0
141 1 0.00029096271371898894 7.020151009425863 3.5099820784043656 0 0 0
145 1 3.509842751403408 7.020121452669476 3.510121969721395 0 0 0
42 1 1.755068249942855 8.775574552403823 3.3180913859097755e-17 0 0 0
44 1 8.698023628477656e-05 8.775403254987319 1.7549774324952305 0 0 0
48 1 3.5100459060621314 8.775414706929157 1.7550054242716853 0 0 0
142 1 1.7550850488954195 8.775484851494937 3.509884271715458 0 0 0
26 1 5.262292860194916 5.262292860194915 0 0 0 0
32 1 7.020221438147342 5.265274268501747 1.7547182642736767 0 0 0
47 1 5.265274268501749 7.020221438147342 1.7547182642736774 0 0 0
49 1 7.019535745434288 7.019535745434287 2.174892095164666e-19 0 0 0
126 1 5.265834470791677 5.265834470791675 3.510591561237129 0 0 0
149 1 7.020552721905827 7.020552721905829 3.5100788784946406 0 0 0
30 1 8.775496834738618 5.264959897733031 0 0 0 0
51 1 8.775535876632942 7.020325912310932 1.7548680886712495 0 0 0
130 1 8.775443933208129 5.265135516000102 3.5100090907128654 0 0 0
46 1 5.26495989773303 8.77549683473862 2.7091590663681604e-18 0 0 0
52 1 7.020325912310931 8.77553587663294 1.7548680886712507 0 0 0
146 1 5.265135516000105 8.775443933208129 3.510009090712865 0 0 0
50 1 8.775371949857668 8.775371949857666 1.2529269678666011e-18 0 0 0
34 1 12.286756872694594 5.264347076797561 2.316732883979753e-19 0 0 0
36 1 10.530837069296373 5.2651282109147655 1.7549456298292896 0 0 0
53 1 10.53099634529256 7.020053407793378 1.4609601247953953e-18 0 0 0
55 1 12.286079821482902 7.020256424826722 1.7548466965379712 0 0 0
134 1 12.286017540285332 5.265257738837211 3.510022313483127 0 0 0
153 1 10.530751370630691 7.020366770488737 3.510017676394091 0 0 0
54 1 12.286282838516247 8.775339901017063 1.0337581864453721e-16 0 0 0
56 1 10.53080343071071 8.775532815598913 1.7548725419316666 0 0 0
154 1 12.285969475820886 8.775584875678932 3.510017676394091 0 0 0
24 1 17.550606158854208 5.2655653404475915 1.755327923088892 -1 0 0
38 1 15.799037241808497 5.262348325811719 0 0 0 0
40 1 14.041267958116798 5.265068288192826 1.75451767371437 0 0 0
57 1 14.04198916951206 7.019579373615032 0 0 0 0
59 1 15.79621278454598 7.020057345145592 1.7547385655335301 0 0 0
138 1 15.796031758037506 5.265483893192172 3.5105604707405136 0 0 0
157 1 14.041078507472411 7.020318706024294 3.5100223134831268 0 0 0
58 1 15.79640166658313 8.775472860679429 3.177233669457947e-18 0 0 0
60 1 14.041208035394856 8.775499177013248 1.754945629829289 0 0 0
158 1 15.796264375201568 8.775414570189845 3.5099870468796315 0 0 0
61 1 5.322699438185105e-05 10.5307616939058 0 0 0 0
62 1 1.7546562194802995 12.286416703251403 2.0590554509656786e-18 0 0 0
63 1 1.7550344967009541 10.530932991322302 1.7549774324952303 0 0 0
64 1 6.0891790900601836e-05 12.28657167140365 1.7546089156084994 0 0 0
65 1 3.509934579726494 10.530863385630196 9.823582756607388e-20 0 0 0
68 1 3.510123461763643 12.28627890116403 1.7547385655335292 0 0 0
161 1 3.6428041817199616e-05 10.530851394814686 3.5098842717154595 0 0 0
162 1 1.7548305142235183 12.28618523688376 3.509982078404366 0 0 0
165 1 3.5100718711080554 10.530921676119778 3.50998704687963 0 0 0
66 1 5.264347076797562 12.286756872694593 0 0 0 0
67 1 5.265128210914767 10.530837069296375 1.754945629829288 0 0 0
69 1 7.020053407793376 10.530996345292563 1.5933448610228098e-18 0 0 0
72 1 7.02025642482672 12.2860798214829 1.7548466965379708 0 0 0
166 1 5.26525773883721 12.28601754028533 3.5100223134831254 0 0 0
169 1 7.020366770488738 10.530751370630693 3.51001767639409 0 0 0
70 1 8.775339901017063 12.286282838516245 1.1411419282309349e-18 0 0 0
71 1 8.775532815598913 10.53080343071071 1.7548725419316673 0 0 0
170 1 8.775584875678932 12.285969475820885 3.5100176763940913 0 0 0
73 1 10.530964296451955 10.530964296451957 3.5224795090288047e-16 0 0 0
74 1 12.286800500875337 12.286800500875335 4.828012045196605e-19 0 0 0
75 1 12.286010333998695 10.530800369676683 1.754868088671249 0 0 0
76 1 10.530800369676683 12.286010333998693 1.75486808867125 0 0 0
150 1 8.775611963634123 8.775611963634123 3.5100241752297516 0 0 0
173 1 10.530724282675498 10.530724282675502 3.5100241752297534 0 0 0
174 1 12.285783524403795 12.285783524403795 3.5100788784946415 0 0 0
77 1 14.041376348576591 10.530839411571003 2.275362653908686e-19 0 0 0
78 1 15.796739493213481 12.286483896038073 1.016386754973811e-15 0 0 0
79 1 15.796290340247493 10.530921539380468 1.7550054242716846 0 0 0
80 1 14.041061977807876 12.286114808162282 1.7547182642736763 0 0 0
177 1 14.041200730309521 10.530892313101495 3.5100090907128654 0 0 0
178 1 15.796493494906215 12.28621479364015 3.510121969721395 0 0 0
105 1 3.5083750011898025 17.550588166042655 3.508449608882832 0 -1 0
81 1 0.0003683781195477928 14.044559073137703 7.423001281322882e-19 0 0 0
82 1 1.753932179997805 15.80016065581976 0 0 0 0
83 1 1.7557300874554134 14.040770905862031 1.7553279230888925 0 0 0
85 1 3.5072990045011263 14.043987920497903 3.871071528078414e-20 0 0 0
88 1 3.5114625707055986 15.794873675604025 1.7563057344649444 0 0 0
181 1 0.000276202681773145 14.043552355153574 3.5078556256210502 0 0 0
182 1 1.7557480802669734 15.79796124511982 3.5084496088828314 0 0 0
185 1 3.5103044882721157 14.040852353117453 3.5105604707405127 0 0 0
7 1 5.2655653404475915 17.55060615885421 1.7553279230888938 0 -1 0
86 1 5.26234832581172 15.799037241808497 4.6183490120161276e-18 0 0 0
87 1 5.265068288192825 14.0412679581168 1.7545176737143717 0 0 0
89 1 7.019579373615032 14.041989169512062 1.436137986752755e-18 0 0 0
92 1 7.020057345145595 15.79621278454598 1.754738565533531 0 0 0
186 1 5.2654838931921715 15.796031758037506 3.510560470740513 0 0 0
189 1 7.020318706024293 14.041078507472415 3.510022313483127 0 0 0
90 1 8.775472860679425 15.796401666583126 0 0 0 0
91 1 8.77549917701325 14.041208035394858 1.7549456298292878 0 0 0
190 1 8.775414570189843 15.796264375201568 3.5099870468796293 0 0 0
93 1 10.530839411571003 14.041376348576593 4.216808450815188e-19 0 0 0
94 1 12.286483896038071 15.796739493213483 0 0 0 0
95 1 12.286114808162282 14.041061977807876 1.754718264273678 0 0 0
96 1 10.530921539380467 15.796290340247491 1.7550054242716846 0 0 0
193 1 10.530892313101496 14.04120073030952 3.5100090907128645 0 0 0
194 1 12.28621479364015 15.796493494906214 3.5101219697213955 0 0 0
1 2 17.550969992036915 17.55096999203691 0 -1 -1 0
101 1 17.550577307384003 17.550577307384003 3.5077799951098387 -1 -1 0
19 1 15.796156268173398 17.550453987086087 1.7549504294749225 0 -1 0
84 1 17.55045398708609 15.7961562681734 1.7549504294749216 -1 0 0
97 1 14.044043386114708 14.044043386114708 3.368718734358314e-19 0 0 0
98 1 15.7992274529803 15.7992274529803 0 0 0 0
99 1 15.795399639767107 14.040387727157107 1.755526360667699 0 0 0
100 1 14.040387727157109 15.795399639767108 1.7555263606676998 0 0 0
197 1 14.040501775517948 14.040501775517946 3.510591561237127 0 0 0
198 1 15.795015151052494 15.795015151052496 3.511393921958651 0 0 0
103 1 1.7546645945791683 0.00045688235807007785 5.264281634555825 0 0 0
104 1 0.00045688235806927045 1.7546645945791681 5.264281634555824 0 0 0
108 1 3.5097682663770895 1.7548337186319996 5.2645906725245695 0 0 0
123 1 1.7548337186320015 3.5097682663770895 5.2645906725245695 0 0 0
201 1 8.181800964605673e-05 8.181800964463779e-05 7.020240216456996 0 0 0
202 1 1.7550396589275925 1.7550396589275916 7.020240216456995 0 0 0
205 1 3.509905171841911 9.172681365604084e-05 7.020142445405336 0 0 0
221 1 9.172681365592517e-05 3.509905171841912 7.020142445405335 0 0 0
225 1 3.5100267156560703 3.5100267156560703 7.020088115224497 0 0 0
107 1 5.264564437721582 0.0002919886677192737 5.2643740201217515 0 0 0
112 1 7.0196666318574445 1.754985737793878 5.264533253496773 0 0 0
127 1 5.265413884293997 3.509895308085545 5.265224185848147 0 0 0
206 1 5.265004836097882 1.7549849303120182 7.020253230142018 0 0 0
209 1 7.020110709994336 0.00013547277451457013 7.020135979804047 0 0 0
229 1 7.020384475394616 3.509998955504003 7.020402349638163 0 0 0
111 1 8.775512646855983 0.00013339592791233992 5.265085539831884 0 0 0
131 1 8.775530050333785 3.5099953275498286 5.265162746004228 0 0 0
210 1 8.77536525524336 1.7549936971282523 7.020183430157841 0 0 0
231 1 8.775556425052566 3.509998399486969 8.775607384686191 0 0 0
115 1 12.28666961445218 0.00013573914335728322 5.264533253496774 0 0 0
116 1 10.53082359945364 1.7549880810093248 5.265085539831883 0 0 0
135 1 12.285923257767934 3.510024276629531 5.2652866499540885 0 0 0
213 1 10.530970991066265 0.00012777980898577614 7.020183430157842 0 0 0
214 1 12.286225536315287 1.7549860041627228 7.0201359798040475 0 0 0
233 1 10.530752860021042 3.5100017608500815 7.020416554057712 0 0 0
216 1 10.530810234926934 1.7549942911256826 8.775607384686191 0 0 0
119 1 15.796567979932533 0.00028775830523671345 5.2645906725245695 0 0 0
120 1 14.041771808588042 1.7548294882695203 5.2643740201217515 0 0 0
139 1 15.796428706813035 3.5099075394965853 5.264910165106936 0 0 0
217 1 14.041331410211741 0.00013654662521998687 7.020253230142019 0 0 0
218 1 15.796431074467714 1.7550297501235832 7.020142445405336 0 0 0
237 1 14.041232339681557 3.5099635542180847 7.020196248139415 0 0 0
124 1 0.000291988667718743 5.2645644377215834 5.264374020121752 0 0 0
128 1 3.5098953080855444 5.265413884293996 5.265224185848147 0 0 0
143 1 1.7549857377938798 7.019666631857444 5.264533253496773 0 0 0
222 1 1.754984930312018 5.265004836097881 7.020253230142019 0 0 0
241 1 0.00013547277451375967 7.020110709994335 7.020135979804046 0 0 0
245 1 3.509998955504003 7.020384475394616 7.020402349638163 0 0 0
144 1 0.00013339592791028707 8.775512646855981 5.265085539831882 0 0 0
148 1 3.5099953275498286 8.775530050333783 5.265162746004229 0 0 0
242 1 1.7549936971282527 8.77536525524336 7.020183430157842 0 0 0
244 1 0.00012718581155501306 8.775526011382691 8.775607384686191 0 0 0
248 1 3.5099983994869683 8.775556425052566 8.775607384686191 0 0 0
132 1 7.020553116235769 5.265250476559686 5.26537965786054 0 0 0
147 1 5.265250476559688 7.020553116235771 5.26537965786054 0 0 0
226 1 5.265186523753587 5.265186523753585 7.020315003598623 0 0 0
249 1 7.020413355762828 7.0204133557628285 7.020466743581899 0 0 0
250 1 8.775583720713232 8.775583720713232 7.020428454895223 0 0 0
232 1 7.0203611805800605 5.2651817439009685 8.775607384686191 0 0 0
136 1 10.530751929352496 5.265186805777639 5.265201066617956 0 0 0
151 1 8.775622967244377 7.020409054976872 5.26524983402806 0 0 0
155 1 12.285924673791355 7.020411572518271 5.265248746033397 0 0 0
230 1 8.775622261775853 5.265184495017075 7.020462500107342 0 0 0
234 1 12.285930877329417 5.265184497529149 7.020475346009268 0 0 0
253 1 10.530773329665756 7.020380160538267 7.020431536198849 0 0 0
156 1 10.53076304992621 8.775573196383416 5.265229253680898 0 0 0
254 1 12.285956085771355 8.775562916643867 7.020431536198848 0 0 0
140 1 14.041024254631731 5.265311991677892 5.265436113729992 0 0 0
159 1 15.796311969680094 7.0204129885416915 5.2652866499540885 0 0 0
238 1 15.79637269209154 5.265103906628068 7.020196248139414 0 0 0
257 1 14.041151748780475 7.020405368980208 7.020475346009267 0 0 0
160 1 14.041149440531983 8.775584316957127 5.265201066617956 0 0 0
258 1 15.796334485459543 8.77558338628858 7.020416554057711 0 0 0
163 1 1.7549880810093277 10.53082359945364 5.265085539831883 0 0 0
164 1 0.0001357391433586462 12.286669614452181 5.264533253496771 0 0 0
168 1 3.51002427662953 12.285923257767932 5.265286649954089 0 0 0
261 1 0.00012777980898429132 10.530970991066264 7.020183430157843 0 0 0
262 1 1.7549860041627232 12.286225536315287 7.020135979804046 0 0 0
265 1 3.510001760850081 10.530752860021044 7.020416554057709 0 0 0
268 1 3.5099919272372895 12.286046250656195 8.775607384686191 0 0 0
152 1 7.020409054976871 8.775622967244376 5.265249834028061 0 0 0
167 1 5.265186805777639 10.530751929352498 5.265201066617957 0 0 0
172 1 7.020411572518272 12.285924673791353 5.265248746033397 0 0 0
246 1 5.265184495017077 8.775622261775853 7.0204625001073415 0 0 0
266 1 5.265184497529148 12.285930877329418 7.020475346009268 0 0 0
269 1 7.0203801605382665 10.530773329665758 7.020431536198848 0 0 0
171 1 8.775573196383416 10.53076304992621 5.265229253680898 0 0 0
270 1 8.775562916643867 12.285956085771355 7.020431536198848 0 0 0
175 1 12.285927191332753 10.530713279065248 5.26524983402806 0 0 0
176 1 10.530713279065248 12.285927191332751 5.265249834028059 0 0 0
273 1 10.530752525596393 10.530752525596393 7.020428454895223 0 0 0
274 1 12.285922890546795 12.285922890546795 7.020466743581901 0 0 0
179 1 15.796340918759794 10.53080619597584 5.265162746004227 0 0 0
180 1 14.04108576974994 12.285783130073854 5.265379657860539 0 0 0
277 1 14.04115175129255 10.53071398453377 7.020462500107342 0 0 0
278 1 15.79633729080562 12.285951770915007 7.020402349638162 0 0 0
279 1 15.796337846822654 10.530779821257056 8.775607384686191 0 0 0
280 1 14.041154502408652 12.285975065729565 8.775607384686191 0 0 0
183 1 1.7548294882695186 14.04177180858804 5.2643740201217515 0 0 0
184 1 0.00028775830523732087 15.796567979932535 5.2645906725245695 0 0 0
188 1 3.5099075394965866 15.796428706813037 5.264910165106936 0 0 0
281 1 0.00013654662521806306 14.041331410211741 7.020253230142017 0 0 0
282 1 1.7550297501235816 15.796431074467716 7.020142445405335 0 0 0
285 1 3.5099635542180856 14.041232339681557 7.020196248139415 0 0 0
187 1 5.265311991677893 14.041024254631731 5.265436113729993 0 0 0
192 1 7.0204129885416915 15.796311969680092 5.265286649954089 0 0 0
286 1 5.265103906628067 15.79637269209154 7.020196248139414 0 0 0
289 1 7.0204053689802075 14.041151748780475 7.020475346009266 0 0 0
191 1 8.775584316957126 14.041149440531985 5.265201066617956 0 0 0
290 1 8.775583386288579 15.796334485459543 7.020416554057711 0 0 0
287 1 5.265121833953149 14.041214412356476 8.775607384686191 0 0 0
195 1 12.285783130073852 14.041085769749937 5.26537965786054 0 0 0
196 1 10.530806195975842 15.796340918759796 5.265162746004228 0 0 0
293 1 10.53071398453377 14.041151751292547 7.020462500107342 0 0 0
294 1 12.285951770915005 15.79633729080562 7.020402349638162 0 0 0
295 1 12.285975065729565 14.041154502408652 8.775607384686191 0 0 0
199 1 15.79644093822408 14.040922362015625 5.265224185848149 0 0 0
200 1 14.040922362015626 15.796440938224078 5.2652241858481466 0 0 0
297 1 14.041149722556037 14.041149722556035 7.020315003598625 0 0 0
298 1 15.796309530653554 15.796309530653552 7.020088115224498 0 0 0
203 1 1.755054879033234 6.659790400511028e-05 8.775607384686193 0 0 0
204 1 6.659790400344201e-05 1.7550548790332337 8.775607384686193 0 0 0
208 1 3.5100529361896835 1.7550841205960872 8.775607384686193 0 0 0
223 1 1.7550841205960874 3.5100529361896835 8.775607384686193 0 0 0
301 1 8.181800964650077e-05 8.181800964514323e-05 10.53097455291539 0 0 0
302 1 1.7550396589275923 1.7550396589275925 10.53097455291539 0 0 0
303 1 1.754664594579167 0.0004568823580698298 12.286933134816561 0 0 0
304 1 0.00045688235806946317 1.7546645945791677 12.286933134816561 0 0 0
305 1 3.509905171841911 9.1726813654778e-05 10.53107232396705 0 0 0
308 1 3.50976826637709 1.7548337186320013 12.286624096847817 0 0 0
321 1 9.172681365616535e-05 3.5099051718419103 10.53107232396705 0 0 0
323 1 1.7548337186320015 3.5097682663770886 12.286624096847815 0 0 0
325 1 3.5100267156560703 3.510026715656071 10.531126654147888 0 0 0
207 1 5.265048080496969 4.496853441502163e-05 8.775607384686193 0 0 0
212 1 7.020234079697354 1.7549925111303084 8.775607384686193 0 0 0
227 1 5.265128249645284 3.5100841043586573 8.775607384686193 0 0 0
306 1 5.265004836097882 1.7549849303120182 10.530961539230367 0 0 0
307 1 5.264564437721583 0.0002919886677193815 12.286840749250635 0 0 0
309 1 7.020110709994336 0.00013547277451477743 10.531078789568339 0 0 0
312 1 7.019666631857444 1.7549857377938798 12.286681515875614 0 0 0
327 1 5.265413884293997 3.5098953080855444 12.285990583524239 0 0 0
329 1 7.020384475394615 3.5099989555040025 10.530812419734222 0 0 0
211 1 8.775526011382691 0.00012718581155417725 8.775607384686193 0 0 0
310 1 8.77536525524336 1.7549936971282516 10.531031339214545 0 0 0
311 1 8.775512646855983 0.00013339592791275677 12.286129229540505 0 0 0
331 1 8.775530050333783 3.5099953275498286 12.286052023368159 0 0 0
215 1 12.28610216661227 0.00012896580693050043 8.775607384686193 0 0 0
235 1 12.286046250656195 3.509991927237291 8.775607384686193 0 0 0
313 1 10.530970991066264 0.00012777980898511141 10.531031339214545 0 0 0
314 1 12.286225536315287 1.7549860041627232 10.53107878956834 0 0 0
315 1 12.286669614452181 0.0001357391433575126 12.286681515875612 0 0 0
316 1 10.53082359945364 1.7549880810093252 12.286129229540505 0 0 0
333 1 10.530752860021044 3.510001760850083 10.530798215314677 0 0 0
335 1 12.285923257767932 3.5100242766295304 12.285928119418298 0 0 0
219 1 15.796283310119941 3.735634114768197e-05 8.775607384686195 0 0 0
220 1 14.041288165812654 1.7550765084028241 8.775607384686193 0 0 0
239 1 15.796270491220714 3.510065755088909 8.775607384686193 0 0 0
317 1 14.04133141021174 0.00013654662521891085 10.530961539230367 0 0 0
318 1 15.796431074467714 1.755029750123582 10.531072323967049 0 0 0
319 1 15.796567979932535 0.00028775830523476936 12.286624096847817 0 0 0
320 1 14.041771808588042 1.7548294882695188 12.286840749250636 0 0 0
337 1 14.041232339681557 3.5099635542180847 10.53101852123297 0 0 0
339 1 15.796428706813035 3.5099075394965875 12.28630460426545 0 0 0
224 1 4.4968534414386876e-05 5.265048080496969 8.775607384686193 0 0 0
228 1 3.5100841043586577 5.265128249645285 8.775607384686193 0 0 0
243 1 1.7549925111303095 7.020234079697354 8.775607384686193 0 0 0
322 1 1.754984930312019 5.265004836097882 10.530961539230368 0 0 0
324 1 0.0002919886677185527 5.2645644377215834 12.286840749250636 0 0 0
328 1 3.5098953080855444 5.265413884293997 12.285990583524237 0 0 0
341 1 0.0001354727745141646 7.020110709994336 10.53107878956834 0 0 0
343 1 1.7549857377938791 7.019666631857444 12.286681515875612 0 0 0
345 1 3.509998955504002 7.020384475394613 10.530812419734222 0 0 0
342 1 1.7549936971282527 8.77536525524336 10.531031339214545 0 0 0
344 1 0.0001333959279112719 8.775512646855983 12.286129229540503 0 0 0
348 1 3.5099953275498277 8.775530050333785 12.286052023368159 0 0 0
247 1 5.265181743900969 7.020361180580061 8.775607384686193 0 0 0
326 1 5.265186523753584 5.265186523753587 10.530899765773764 0 0 0
332 1 7.02055311623577 5.265250476559687 12.285835111511846 0 0 0
347 1 5.265250476559689 7.02055311623577 12.285835111511846 0 0 0
349 1 7.020413355762829 7.020413355762829 10.530748025790485 0 0 0
251 1 8.775592944539284 7.020384045505571 8.775607384686195 0 0 0
252 1 7.02038404550557 8.775592944539284 8.775607384686193 0 0 0
350 1 8.77558372071323 8.775583720713229 10.53078631447716 0 0 0
236 1 10.530776944919076 5.265171271758977 8.775607384686193 0 0 0
255 1 12.28596356956863 7.020372676740994 8.775607384686193 0 0 0
330 1 8.775622261775855 5.265184495017078 10.530752269265042 0 0 0
334 1 12.285930877329415 5.265184497529148 10.530739423363118 0 0 0
336 1 10.530751929352498 5.265186805777637 12.28601370275443 0 0 0
351 1 8.775622967244376 7.020409054976872 12.285964935344325 0 0 0
353 1 10.530773329665756 7.0203801605382665 10.530783233173532 0 0 0
355 1 12.285924673791355 7.020411572518272 12.285966023338991 0 0 0
256 1 10.530768802279022 8.775567444030598 8.775607384686193 0 0 0
354 1 12.285956085771359 8.775562916643867 10.530783233173535 0 0 0
356 1 10.530763049926207 8.775573196383416 12.28598551569149 0 0 0
240 1 14.041214412356474 5.265121833953148 8.775607384686193 0 0 0
259 1 15.796344319072332 7.020289995653431 8.775607384686193 0 0 0
338 1 15.796372692091538 5.265103906628068 10.531018521232973 0 0 0
340 1 14.041024254631733 5.265311991677893 12.285778655642392 0 0 0
357 1 14.041151748780475 7.020405368980209 10.530739423363118 0 0 0
359 1 15.796311969680092 7.020412988541691 12.285928119418296 0 0 0
260 1 14.04116497455065 8.77555930139055 8.775607384686195 0 0 0
358 1 15.796334485459543 8.775583386288577 10.530798215314675 0 0 0
360 1 14.04114944053198 8.775584316957126 12.286013702754428 0 0 0
263 1 1.7549942911256808 10.530810234926932 8.775607384686193 0 0 0
264 1 0.0001289658069311069 12.28610216661227 8.775607384686193 0 0 0
361 1 0.00012777980898649852 10.530970991066265 10.531031339214547 0 0 0
362 1 1.7549860041627214 12.286225536315287 10.531078789568339 0 0 0
363 1 1.7549880810093266 10.530823599453639 12.286129229540503 0 0 0
364 1 0.0001357391433570223 12.28666961445218 12.28668151587561 0 0 0
365 1 3.510001760850082 10.530752860021042 10.530798215314677 0 0 0
368 1 3.5100242766295313 12.285923257767932 12.285928119418298 0 0 0
267 1 5.265171271758977 10.530776944919076 8.775607384686193 0 0 0
272 1 7.020372676740995 12.28596356956863 8.775607384686193 0 0 0
346 1 5.265184495017078 8.775622261775855 10.530752269265042 0 0 0
352 1 7.020409054976871 8.775622967244376 12.285964935344326 0 0 0
366 1 5.265184497529149 12.285930877329415 10.530739423363118 0 0 0
367 1 5.265186805777639 10.530751929352498 12.28601370275443 0 0 0
369 1 7.020380160538265 10.530773329665756 10.530783233173533 0 0 0
372 1 7.020411572518271 12.285924673791355 12.285966023338991 0 0 0
271 1 8.7755674440306 10.530768802279026 8.775607384686193 0 0 0
370 1 8.775562916643867 12.285956085771357 10.530783233173535 0 0 0
371 1 8.775573196383416 10.53076304992621 12.285985515691491 0 0 0
275 1 12.285952200804052 10.530743301770341 8.775607384686195 0 0 0
276 1 10.530743301770343 12.285952200804052 8.775607384686193 0 0 0
373 1 10.530752525596391 10.530752525596393 10.53078631447716 0 0 0
374 1 12.285922890546793 12.285922890546793 10.530748025790484 0 0 0
375 1 12.285927191332753 10.530713279065246 12.285964935344326 0 0 0
376 1 10.530713279065246 12.285927191332753 12.285964935344326 0 0 0
377 1 14.041151751292547 10.530713984533769 10.530752269265042 0 0 0
378 1 15.79633729080562 12.285951770915009 10.530812419734225 0 0 0
379 1 15.796340918759794 10.530806195975842 12.286052023368159 0 0 0
380 1 14.04108576974994 12.285783130073854 12.285835111511847 0 0 0
283 1 1.7550765084028237 14.041288165812654 8.775607384686193 0 0 0
284 1 3.73563411469178e-05 15.796283310119941 8.775607384686193 0 0 0
288 1 3.51006575508891 15.796270491220714 8.775607384686193 0 0 0
381 1 0.00013654662521989734 14.04133141021174 10.530961539230368 0 0 0
382 1 1.755029750123583 15.796431074467714 10.53107232396705 0 0 0
383 1 1.7548294882695201 14.04177180858804 12.286840749250636 0 0 0
384 1 0.00028775830523634514 15.796567979932536 12.286624096847818 0 0 0
385 1 3.509963554218084 14.041232339681557 10.531018521232971 0 0 0
388 1 3.5099075394965866 15.796428706813035 12.286304604265448 0 0 0
292 1 7.020289995653432 15.796344319072334 8.775607384686193 0 0 0
386 1 5.265103906628068 15.79637269209154 10.531018521232971 0 0 0
387 1 5.265311991677893 14.041024254631731 12.285778655642394 0 0 0
389 1 7.020405368980209 14.041151748780477 10.530739423363118 0 0 0
392 1 7.020412988541691 15.796311969680092 12.285928119418298 0 0 0
291 1 8.77555930139055 14.04116497455065 8.775607384686195 0 0 0
390 1 8.77558338628858 15.79633448545954 10.530798215314675 0 0 0
391 1 8.775584316957126 14.041149440531983 12.286013702754428 0 0 0
296 1 10.530779821257056 15.796337846822654 8.775607384686193 0 0 0
393 1 10.53071398453377 14.041151751292547 10.530752269265042 0 0 0
394 1 12.285951770915007 15.79633729080562 10.530812419734223 0 0 0
395 1 12.285783130073854 14.04108576974994 12.285835111511847 0 0 0
396 1 10.530806195975842 15.796340918759796 12.286052023368159 0 0 0
299 1 15.796252141950966 14.04120799666434 8.775607384686193 0 0 0
300 1 14.04120799666434 15.796252141950966 8.775607384686193 0 0 0
397 1 14.041149722556037 14.041149722556037 10.530899765773764 0 0 0
398 1 15.796309530653552 15.796309530653554 10.531126654147887 0 0 0
399 1 15.796440938224078 14.040922362015623 12.285990583524239 0 0 0
400 1 14.040922362015625 15.796440938224078 12.285990583524239 0 0 0
402 1 1.7557589389256216 1.7557589389256205 14.043434774262547 0 0 0
403 1 1.753926859310787 0.0011946176264509176 15.79856779808737 0 0 0
404 1 0.0011946176264507763 1.7539268593107873 15.79856779808737 0 0 0
408 1 3.510179978136225 1.7558822592235357 15.796264339897462 0 0 0
423 1 1.7558822592235357 3.510179978136225 15.796264339897462 0 0 0
425 1 3.511321095257127 3.5113210952571268 14.039820847413733 0 0 0
406 1 5.26278389115605 1.7548452742554654 14.043359143751335 0 0 0
409 1 7.020151009425863 0.0002909627137206785 14.04123269096802 0 0 0
412 1 7.0197645749059765 1.7550605851463355 15.796605853763888 0 0 0
427 1 5.265948519152514 3.5109366065425167 15.795688408704686 0 0 0
429 1 7.020121452669475 3.5098427514034087 14.04109279965099 0 0 0
410 1 8.775484851494937 1.755085048895419 14.041330497656926 0 0 0
411 1 8.775403254987319 8.698023628475886e-05 15.796237336877155 0 0 0
431 1 8.775414706929157 3.5100459060621336 15.796209345100701 0 0 0
413 1 10.530851394814684 3.6428041818108984e-05 14.041330497656926 0 0 0
414 1 12.286185236883762 1.7548305142235177 14.041232690968021 0 0 0
415 1 12.28657167140365 6.0891790901018915e-05 15.796605853763886 0 0 0
416 1 10.530932991322306 1.7550344967009543 15.796237336877157 0 0 0
433 1 10.530921676119778 3.5100718711080563 14.041227722492755 0 0 0
435 1 12.28627890116403 3.5101234617636434 15.796476203838857 0 0 0
421 1 17.550588166042655 3.508375001189802 14.042765160489553 -1 0 0
417 1 14.043552355153576 0.000276202681773724 14.043359143751337 0 0 0
418 1 15.79796124511982 1.7557480802669714 14.042765160489555 0 0 0
420 1 14.040770905862031 1.7557300874554125 15.795886846283492 0 0 0
437 1 14.040852353117453 3.5103044882721157 14.040654298631871 0 0 0
439 1 15.794873675604025 3.511462570705598 15.794909034907443 0 0 0
422 1 1.754845274255465 5.262783891156051 14.043359143751337 0 0 0
428 1 3.5109366065425163 5.265948519152514 15.795688408704686 0 0 0
441 1 0.0002909627137194129 7.020151009425861 14.04123269096802 0 0 0
443 1 1.7550605851463363 7.019764574905975 15.796605853763886 0 0 0
445 1 3.509842751403408 7.020121452669475 14.041092799650992 0 0 0
442 1 1.7550850488954208 8.775484851494937 14.041330497656924 0 0 0
444 1 8.698023628283792e-05 8.77540325498732 15.796237336877155 0 0 0
448 1 3.5100459060621336 8.775414706929157 15.796209345100701 0 0 0
426 1 5.265834470791677 5.265834470791677 14.040623208135258 0 0 0
432 1 7.020221438147341 5.265274268501747 15.796496505098709 0 0 0
447 1 5.265274268501748 7.020221438147343 15.796496505098709 0 0 0
449 1 7.020552721905826 7.020552721905827 14.041135890877745 0 0 0
430 1 8.775443933208129 5.265135516000102 14.04120567865952 0 0 0
451 1 8.775535876632942 7.020325912310931 15.796346680701138 0 0 0
446 1 5.265135516000104 8.775443933208127 14.04120567865952 0 0 0
452 1 7.0203259123109305 8.775535876632942 15.796346680701138 0 0 0
434 1 12.286017540285332 5.265257738837212 14.04119245588926 0 0 0
436 1 10.530837069296375 5.265128210914767 15.796269139543096 0 0 0
453 1 10.530751370630691 7.020366770488738 14.041197092978296 0 0 0
455 1 12.2860798214829 7.020256424826722 15.796368072834415 0 0 0
454 1 12.285969475820885 8.77558487567893 14.041197092978292 0 0 0
456 1 10.530803430710709 8.775532815598913 15.79634222744072 0 0 0
424 1 17.55060615885421 5.265565340447592 15.795886846283494 -1 0 0
438 1 15.796031758037508 5.265483893192172 14.04065429863187 0 0 0
440 1 14.0412679581168 5.265068288192825 15.796697095658017 0 0 0
457 1 14.041078507472411 7.020318706024294 14.041192455889256 0 0 0
459 1 15.796212784545983 7.020057345145593 15.796476203838857 0 0 0
458 1 15.796264375201568 8.775414570189847 14.041227722492755 0 0 0
460 1 14.041208035394858 8.77549917701325 15.796269139543098 0 0 0
461 1 3.6428041817601774e-05 10.530851394814684 14.041330497656926 0 0 0
462 1 1.7548305142235188 12.286185236883762 14.041232690968021 0 0 0
463 1 1.7550344967009546 10.530932991322306 15.796237336877157 0 0 0
464 1 6.0891790902134336e-05 12.28657167140365 15.796605853763886 0 0 0
465 1 3.5100718711080563 10.530921676119776 14.041227722492755 0 0 0
468 1 3.510123461763643 12.28627890116403 15.796476203838855 0 0 0
466 1 5.265257738837212 12.286017540285332 14.041192455889258 0 0 0
467 1 5.265128210914767 10.530837069296373 15.796269139543098 0 0 0
469 1 7.020366770488738 10.530751370630691 14.041197092978294 0 0 0
472 1 7.020256424826722 12.2860798214829 15.796368072834415 0 0 0
470 1 8.77558487567893 12.285969475820885 14.041197092978294 0 0 0
471 1 8.775532815598913 10.53080343071071 15.79634222744072 0 0 0
450 1 8.775611963634125 8.775611963634123 14.041190594142632 0 0 0
473 1 10.530724282675498 10.5307242826755 14.04119059414263 0 0 0
474 1 12.285783524403795 12.285783524403795 14.041135890877745 0 0 0
475 1 12.286010333998695 10.530800369676683 15.796346680701138 0 0 0
476 1 10.530800369676683 12.286010333998693 15.796346680701138 0 0 0
477 1 14.041200730309521 10.530892313101496 14.04120567865952 0 0 0
478 1 15.796493494906212 12.28621479364015 14.04109279965099 0 0 0
479 1 15.796290340247491 10.530921539380465 15.796209345100701 0 0 0
480 1 14.041061977807875 12.286114808162283 15.796496505098707 0 0 0
405 1 3.5083750011898003 17.550588166042655 14.042765160489555 0 -1 0
481 1 0.0002762026817734781 14.043552355153574 14.043359143751337 0 0 0
482 1 1.7557480802669707 15.79796124511982 14.042765160489555 0 0 0
483 1 1.7557300874554107 14.04077090586203 15.795886846283494 0 0 0
485 1 3.510304488272117 14.040852353117451 14.04065429863187 0 0 0
488 1 3.511462570705599 15.794873675604025 15.794909034907445 0 0 0
407 1 5.265565340447592 17.550606158854208 15.795886846283494 0 -1 0
486 1 5.265483893192172 15.796031758037506 14.040654298631871 0 0 0
487 1 5.2650682881928255 14.0412679581168 15.796697095658017 0 0 0
489 1 7.020318706024293 14.041078507472411 14.041192455889258 0 0 0
492 1 7.0200573451455925 15.79621278454598 15.796476203838857 0 0 0
490 1 8.775414570189847 15.796264375201567 14.041227722492755 0 0 0
491 1 8.77549917701325 14.041208035394858 15.796269139543098 0 0 0
493 1 10.530892313101496 14.041200730309523 14.04120567865952 0 0 0
494 1 12.286214793640148 15.796493494906214 14.04109279965099 0 0 0
495 1 12.286114808162282 14.041061977807876 15.796496505098707 0 0 0
496 1 10.530921539380467 15.79629034024749 15.796209345100701 0 0 0
401 1 17.550577307384003 17.550577307384003 14.043434774262545 -1 -1 0
419 1 15.796156268173398 17.55045398708609 15.796264339897464 0 -1 0
484 1 17.55045398708609 15.796156268173398 15.796264339897462 -1 0 0
497 1 14.040501775517948 14.040501775517946 14.040623208135258 0 0 0
498 1 15.795015151052496 15.795015151052494 14.039820847413734 0 0 0
499 1 15.795399639767107 14.040387727157109 15.795688408704688 0 0 0
500 1 14.040387727157109 15.795399639767107 15.795688408704686 0 0 0

Velocities

2 -3.3126978341946234e-09 -3.3127006107467455e-09 1.820763616292002e-16
3 1.648485416848392e-09 -1.6484784985639177e-09 4.142767541323614e-09
4 -1.648480645087855e-09 1.6484766309935316e-09 4.142765917837586e-09
5 2.7748384294449074e-09 -4.912845395136867e-09 9.958395581711385e-16
8 7.859229699197898e-09 -1.58153932805904e-10 5.428023934447915e-09
21 -4.912843712846011e-09 2.7748431574712013e-09 -4.5152651106136e-16
23 -1.5815628086196216e-10 7.859233649168364e-09 5.42802505912717e-09
25 2.3468219274770827e-09 2.3468210457001786e-09 -5.898212801560698e-16
102 3.6745368649038614e-09 3.6745367774353746e-09 4.479924733120678e-09
125 -2.2246204922937665e-09 -2.2246219804400426e-09 2.5419183399805003e-09
6 -1.7451954482615306e-09 7.84408111706094e-09 -7.612122333076331e-16
9 -1.956207546040592e-10 -1.9866624182083937e-09 1.5685227229801696e-15
12 -3.0527884122841285e-09 -7.361597694640887e-11 4.949355694959044e-10
27 3.442098871983368e-09 -3.2336651769795414e-09 -5.998436479739912e-09
29 -5.219394695150145e-09 2.9113711045101344e-09 3.2165353880254604e-16
106 -2.1060241973644254e-09 -8.056971075930656e-10 -2.1688820246066875e-09
109 7.577252879117843e-10 1.889326469976793e-09 1.777629312086611e-09
129 -5.692590356494526e-09 5.1121140749760276e-09 3.4574204038198497e-09
10 -6.15627002156087e-09 -2.8212784464624342e-09 -2.3433280318825816e-16
11 -4.377392790668245e-10 -1.417766720505162e-10 -1.4565014045152428e-09
31 1.5798777323654557e-09 3.567673075506352e-09 1.0452632117364285e-09
110 3.275687952523911e-09 -8.409066956061472e-10 3.476542549347036e-09
13 6.156262941576974e-09 2.8212708106999695e-09 -2.1004256810367455e-15
14 1.956294069983728e-10 1.9866598707676367e-09 -8.795791103279316e-17
15 3.05278999853695e-09 7.362513276932688e-11 4.949366977211788e-10
16 4.3774156229490104e-10 1.4177707393275118e-10 -1.4564925294188859e-09
33 -8.470301569560449e-10 1.0836947567404188e-09 -3.8366040317078207e-16
35 2.897277746997152e-10 -2.747532532124408e-09 9.390742206987636e-10
113 -3.2756896054123533e-09 8.409085939087042e-10 3.476542003998753e-09
114 -7.577293395348165e-10 -1.8893330088371575e-09 1.7776265565337867e-09
133 3.5066224769182095e-09 5.288999505492557e-10 2.9177047939695848e-09
121 3.618795817824784e-09 -2.8960841869004406e-09 1.4912468403309388e-09
17 1.7451897634134849e-09 -7.844072677905093e-09 -4.0557600551813913e-16
18 -2.7748424057150205e-09 4.912840617170795e-09 1.3238473622741445e-16
20 -2.5861291320453356e-10 -2.0789983313307336e-09 2.4681868790664867e-09
37 6.672003323246103e-09 -1.3544551097053773e-09 -3.4337290958985624e-16
39 -1.3725638707618579e-09 1.3725632169644719e-09 -5.5899053991541346e-09
117 2.106022011723458e-09 8.057097141271895e-10 -2.168882558824903e-09
118 2.8960855698481313e-09 -3.618795440173684e-09 1.4912430338680748e-09
137 -2.7096201901815945e-09 2.601663810052892e-09 -2.6724910298372663e-09
22 7.844077032121807e-09 -1.7451966119595716e-09 7.943084173644868e-16
28 -3.2336602519814725e-09 3.4421015056925536e-09 -5.998435829807133e-09
41 -1.9866599478146552e-09 -1.9561994138353664e-10 4.846226951182136e-17
43 -7.362266237558835e-11 -3.0527906344564863e-09 4.949348313327993e-10
45 2.9113773425498257e-09 -5.219399090441589e-09 4.677791014464221e-16
122 -8.057078956100762e-10 -2.106028902821781e-09 -2.168884423826377e-09
141 1.8893304060586826e-09 7.577252335394819e-10 1.7776215108432263e-09
145 5.112124301401399e-09 -5.692593495903985e-09 3.4574223986036933e-09
42 -2.821280181648084e-09 -6.156270163106158e-09 -3.428557817139679e-15
44 -1.4177906324981432e-10 -4.3774269033779546e-10 -1.456496989720691e-09
48 3.5676832106217162e-09 1.5798801950761514e-09 1.045263423481428e-09
142 -8.409134472276948e-10 3.275687867271687e-09 3.476548289023206e-09
26 -7.488401867465932e-10 -7.488353035951569e-10 -6.477442194687412e-16
32 6.869208328842033e-09 -8.356791321644447e-10 1.6106866992567637e-09
47 -8.356861159717914e-10 6.869206254032651e-09 1.6106840468491422e-09
49 -1.2099294427507052e-10 -1.209901298435437e-10 2.174892095164666e-16
126 3.0449313093002106e-09 3.0449383864514474e-09 -6.33332919933757e-10
149 -3.729166883443232e-09 -3.729175513568362e-09 -1.8093688540457476e-09
30 2.6895104395716156e-09 3.3301118806838516e-09 -9.739734165302634e-16
51 4.715608524942583e-09 -3.685527287535898e-09 2.1197324865751263e-09
130 -9.109076178419124e-09 -6.694502239365387e-09 5.440980724398106e-09
46 3.330112802593572e-09 2.6895052341716515e-09 2.7091590663681603e-15
52 -3.6855229046185857e-09 4.715614263077686e-09 2.119726822399626e-09
146 -6.694512227085397e-09 -9.109070085066735e-09 5.440981767167999e-09
50 -4.8897367615853336e-09 -4.889728562338173e-09 1.2529269678666012e-15
34 1.964979563205564e-10 4.023611384271197e-09 2.316732883979753e-16
36 -7.449130692631624e-09 -4.833579893812845e-09 2.6566774213275017e-09
53 2.8485657337912504e-09 -4.425517201497361e-09 1.4609601247953953e-15
55 -1.7098490284753976e-09 1.7098420707773815e-09 -3.66968948904229e-09
134 7.570229361126822e-09 2.667583988997954e-09 -2.7620544782212317e-09
153 8.056199254311281e-09 -2.338394961643331e-09 2.0392230686792355e-09
54 4.425509128614091e-09 -2.8485619611829634e-09 -4.602599697867421e-16
56 -2.644110263783131e-11 2.644715972175999e-11 -1.8133937057741018e-09
154 2.338391243386594e-09 -8.056195545943218e-09 2.0392225354095823e-09
24 2.079001055408593e-09 2.586137607032467e-10 2.4681906153892653e-09
38 1.3544493434340595e-09 -6.672003646229399e-09 -6.212552674689966e-16
40 -7.041279645965363e-10 7.041272997178388e-10 -1.452327543682271e-09
57 -4.0236045828760915e-09 -1.9650274131402642e-10 -1.5366085454967749e-15
59 2.747532808122943e-09 -2.897226252880779e-10 9.390710463482191e-10
138 -2.601660298976241e-09 2.7096223847984245e-09 -2.6724851954528197e-09
157 -2.6675813109165784e-09 -7.570232931139892e-09 -2.762052007254959e-09
58 -1.083692926126207e-09 8.470245660082834e-10 3.177233669457947e-15
60 4.833589809810567e-09 7.449136712330789e-09 2.6566806895756774e-09
158 -5.289082425816239e-10 -3.506617793047253e-09 2.917699757693522e-09
61 2.821280306940781e-09 6.1562724644729565e-09 -4.30250392739097e-16
62 1.986660697206823e-09 1.9562407426952073e-10 2.0590554509656786e-15
63 1.4177370757802998e-10 4.377481181119808e-10 -1.4564957480227854e-09
64 7.362667883392497e-11 3.0527843934617784e-09 4.949333006342866e-10
65 1.0836933116081008e-09 -8.47028876226564e-10 9.823582756607387e-17
68 -2.747534670466644e-09 2.8972741082868767e-10 9.390731820147798e-10
161 8.409167249319231e-10 -3.275687274938643e-09 3.4765443928340382e-09
162 -1.8893279262088913e-09 -7.577307198229926e-10 1.777619945866523e-09
165 5.289066647898454e-10 3.5066167240710963e-09 2.9177042299793035e-09
66 4.023607008575206e-09 1.965051854081187e-10 -9.125090747103925e-16
67 -4.833586695383694e-09 -7.449138146956079e-09 2.656681567806561e-09
69 -4.425509155227707e-09 2.8485577029984954e-09 1.5933448610228097e-15
72 1.7098482900527186e-09 -1.709838821441311e-09 -3.6696874843591412e-09
166 2.6675853601481467e-09 7.570235942652347e-09 -2.7620488779849e-09
169 -2.3383966530601086e-09 8.056193278797903e-09 2.0392259886787245e-09
70 -2.8485633803370923e-09 4.425516283378372e-09 1.141141928230935e-15
71 2.644363461368667e-11 -2.64445118031006e-11 -1.8133974598269793e-09
170 -8.056198983393836e-09 2.338401307067858e-09 2.0392206881549342e-09
73 4.889736209089605e-09 4.889730371824017e-09 3.7351407721306223e-16
74 1.2098924335708244e-10 1.2099625384170502e-10 4.828012045196605e-16
75 3.6855175987457543e-09 -4.715612265910783e-09 2.1197342946849107e-09
76 -4.7156111623905576e-09 3.6855224457137683e-09 2.119730084737769e-09
150 -3.114163675157932e-09 -3.114162499598058e-09 4.565768891274444e-09
173 3.1141700550725555e-09 3.1141589878195906e-09 4.565761168394401e-09
174 3.7291711656587554e-09 3.7291673662692954e-09 -1.8093724743287248e-09
77 -3.330107291672612e-09 -2.689504195945096e-09 2.275362653908686e-16
78 -2.9113733538686438e-09 5.219390356890519e-09 -4.5034450448790096e-15
79 -3.56768236430501e-09 -1.579883895938733e-09 1.0452647687780542e-09
80 8.356792242547616e-10 -6.869207958680053e-09 1.6106872827447193e-09
177 6.694509760592004e-09 9.109074365366483e-09 5.44097850058202e-09
178 -5.112122754154795e-09 5.692590769605824e-09 3.457421652314293e-09
105 -2.896093401232684e-09 3.6187866553530793e-09 1.491243712538388e-09
81 -7.84407506910439e-09 1.7451939961790243e-09 7.423001281322882e-16
82 4.912848165464774e-09 -2.7748411586980852e-09 -7.659402596014694e-16
83 -2.0789965094113116e-09 -2.5861416376748827e-10 2.4681873772822574e-09
85 -1.3544511436300709e-09 6.672004681962659e-09 3.8710715280784136e-17
88 1.372560117890987e-09 -1.3725584971383486e-09 -5.589910057737543e-09
181 8.056986464086389e-10 2.1060319996790037e-09 -2.1688856862093973e-09
182 -3.618793643966945e-09 2.8960925726460757e-09 1.4912464546458877e-09
185 2.601661753065953e-09 -2.7096273886016272e-09 -2.6724821771990346e-09
7 2.5861633130898005e-10 2.078988824141933e-09 2.46818610076133e-09
86 -6.672004676338894e-09 1.3544496214818616e-09 4.618349012016127e-15
87 7.041331126553301e-10 -7.041317741852537e-10 -1.4523336491455284e-09
89 -1.9650514004861644e-10 -4.023612022129963e-09 1.4361379867527551e-15
92 -2.897346796866157e-10 2.747535139039906e-09 9.39068339553166e-10
186 2.709625667018287e-09 -2.6016567476051708e-09 -2.6724840953521453e-09
189 -7.570231594920706e-09 -2.6675932318459255e-09 -2.7620551512446934e-09
90 8.470347652475042e-10 -1.083680649805935e-09 -9.952495348525266e-16
91 7.4491318323557785e-09 4.833578797055322e-09 2.6566841694030293e-09
190 -3.506608624773914e-09 -5.289058715526215e-10 2.9177083193549793e-09
93 -2.6895020692668067e-09 -3.330116022416416e-09 4.216808450815188e-16
94 5.21939703168164e-09 -2.9113766043867204e-09 -8.675928249189483e-16
95 -6.869206092808802e-09 8.356794879876697e-10 1.6106807430650303e-09
96 -1.5798803859881048e-09 -3.5676756581907152e-09 1.0452650608814285e-09
193 9.109066941205272e-09 6.6945132595946425e-09 5.440983492306593e-09
194 5.6925907317566634e-09 -5.112118844889679e-09 3.4574210294799384e-09
1 3.3126921324321482e-09 3.312702730325395e-09 -1.0981527391101063e-15
101 -3.6745338420744175e-09 -3.674533241019458e-09 4.4799273598347865e-09
19 -7.859228181205956e-09 1.5816699028477015e-10 5.42802313511597e-09
84 1.581554954185941e-10 -7.859237052756293e-09 5.428027834478605e-09
97 7.488369146661305e-10 7.488416172792831e-10 3.368718734358314e-16
98 -2.34682170939687e-09 -2.3468239032010702e-09 -7.722935449338118e-16
99 3.233660275621604e-09 -3.4420908113403293e-09 -5.998433309178116e-09
100 -3.442098675821066e-09 3.233653541730155e-09 -5.998437696529251e-09
197 -3.044932028588148e-09 -3.0449297617950422e-09 -6.333281027975574e-10
198 2.2246228149366834e-09 2.2246118964464627e-09 2.5419223490466787e-09
103 6.758643460952901e-09 -6.758646639220827e-09 -8.341565678784566e-09
104 -6.758642323862578e-09 6.7586420921892896e-09 -8.341561383372679e-09
108 3.0080094773783296e-09 -3.0309007478441417e-09 -5.549038422270296e-09
123 -3.0309071940647406e-09 3.008008983890585e-09 -5.5490403601700725e-09
201 3.3626305565523067e-09 3.3626360475638438e-09 -4.090154708919387e-09
202 -3.362635192382088e-09 -3.362631439511217e-09 -4.090152901040333e-09
205 1.6456715851899113e-09 -2.1215517151363026e-10 -3.277121964080838e-09
221 -2.1215558097271206e-10 1.6456691597124225e-09 -3.277121666806185e-09
225 1.6766177838031128e-09 1.676616183056859e-09 -7.815160306585556e-10
107 1.3129307760444234e-09 2.813242235351236e-09 -6.672136514230861e-10
112 3.3899798666102357e-09 -1.6524101455648728e-09 8.169809251564502e-10
127 3.1220184266862836e-09 -9.93660949479876e-10 4.864163521751517e-09
206 -1.3449004628466455e-09 -3.352117551322634e-09 5.331534785809534e-09
209 -5.313351976289063e-09 -2.2183390445929326e-09 3.1133278457803335e-10
229 -7.51835963791345e-09 -1.089460785174335e-09 2.333410727806296e-09
111 4.460029074070024e-09 1.3150429120862097e-09 -3.879022603207499e-09
131 3.0723693964190988e-09 5.376595594524722e-09 -6.821545711322263e-09
210 -5.102283835994114e-09 -8.207167656764723e-10 1.45024167145717e-09
231 1.665890215539855e-09 5.350679912190171e-09 5.5768409127619834e-15
115 -3.3899760854820202e-09 1.6524188714721458e-09 8.169783512365724e-10
116 -4.460025077967248e-09 -1.3150417111675311e-09 -3.8790213000452514e-09
135 -8.489640655030081e-09 1.049011320364612e-09 -3.6008257345134983e-09
213 5.1022789370709085e-09 8.207149264742441e-10 1.4502412423887838e-09
214 5.313352475982341e-09 2.218341961785156e-09 3.113288443591207e-10
233 6.108709990677878e-09 -4.708577831015555e-11 -4.53781870546921e-09
216 1.4353696873280805e-10 3.828763640671593e-09 5.032392986501938e-15
119 -3.0080060247371284e-09 3.0309036669571255e-09 -5.549036634780854e-09
120 -1.3129295280671082e-09 -2.813248915647036e-09 -6.67213192467479e-10
139 1.6580517550818929e-09 -1.6580457135507944e-09 -1.4848092675319447e-09
217 1.3449026983165774e-09 3.35211697154841e-09 5.3315349265791296e-09
218 -1.6456721005447772e-09 2.1215019368225186e-10 -3.2771211963675686e-09
237 3.357483955405768e-09 2.9168989192439047e-09 5.058825175221632e-10
124 2.8132440782851343e-09 1.3129230234849343e-09 -6.672175836218994e-10
128 -9.936554790145497e-10 3.122021981806531e-09 4.8641641515197715e-09
143 -1.652414414972616e-09 3.3899824698319628e-09 8.169827215109402e-10
222 -3.3521172534569774e-09 -1.344898189700254e-09 5.33153400786452e-09
241 -2.2183375824508013e-09 -5.313348633574473e-09 3.113350989469042e-10
245 -1.0894574591186506e-09 -7.518361505098299e-09 2.3334118002948815e-09
144 1.3150502582570637e-09 4.4600328819042e-09 -3.879018035638597e-09
148 5.376599046057792e-09 3.072373190292229e-09 -6.8215488144727465e-09
242 -8.207181888123868e-10 -5.1022841628697205e-09 1.4502373630432096e-09
244 -3.82876245382618e-09 -1.4354218503401262e-10 4.76585050418692e-15
248 5.35068290351637e-09 1.6658908433166958e-09 3.0038434630004937e-15
132 6.7560005415487614e-09 -6.182765083264026e-09 3.7934560571245705e-09
147 -6.182771817007161e-09 6.7559934170133745e-09 3.793454748643294e-09
226 -1.7124361243432653e-09 -1.7124303779456596e-09 1.7325892914318435e-09
249 -1.3433876271128558e-09 -1.343392708559115e-09 -1.0501886435140566e-09
250 -9.437431477540643e-10 -9.437403878810372e-10 -2.672446374046779e-09
232 2.5907653423032766e-09 1.9206469897182735e-09 4.198505817779283e-15
136 -1.8258917964833733e-09 1.24468066768984e-09 -4.667223706670556e-09
151 -6.655194618952809e-11 3.6457262655323062e-09 -3.980766927104272e-10
155 -5.623637798840156e-09 5.623630927917996e-09 3.6407447007215204e-10
230 -6.7474489109617155e-09 -2.422123464746287e-11 -2.853152985851738e-09
234 1.6110210670184452e-09 -1.201953607513528e-09 -2.045004852860352e-09
253 3.40732268597806e-09 8.679683253582081e-10 4.930209907084127e-10
156 1.0921932248018325e-09 -1.0921952753572404e-09 1.268981219007676e-09
254 -8.679683374737754e-10 -3.4073205665918203e-09 4.930273596553321e-10
140 3.1799520280814763e-09 -3.1799486221295347e-09 2.8907353864158106e-10
159 -1.04901722668524e-09 8.489634075492069e-09 -3.6008272281205846e-09
238 -2.9169006459154135e-09 -3.357484664930608e-09 5.058853307347457e-10
257 1.2019556920075151e-09 -1.611024255088714e-09 -2.0450002917681272e-09
160 -1.244678460766604e-09 1.8258955073699246e-09 -4.667224513094541e-09
258 4.708681899306807e-11 -6.108708693827361e-09 -4.537819043495387e-09
163 -1.3150527416528747e-09 -4.460029793912027e-09 -3.879021932418768e-09
164 1.652415565065012e-09 -3.3899865254442675e-09 8.169858960850949e-10
168 1.0490150307386528e-09 -8.489631349297794e-09 -3.6008307405015984e-09
261 8.207180422435717e-10 5.102285106110966e-09 1.450233443509412e-09
262 2.2183372479429407e-09 5.313351843904326e-09 3.113333832643628e-10
265 -4.708443525518646e-11 6.108703660715911e-09 -4.537810006625731e-09
268 5.57375186540786e-09 9.99677212987471e-10 4.2191747725686954e-15
152 3.64573039841829e-09 -6.654420936164182e-11 -3.9807919945086787e-10
167 1.2446806410885418e-09 -1.8258974520438478e-09 -4.667227910476935e-09
172 5.623628572036386e-09 -5.623631601122587e-09 3.6407252912039694e-10
246 -2.4228187718021407e-11 -6.747446740421153e-09 -2.8531501940468646e-09
266 -1.2019511496184167e-09 1.6110187647651416e-09 -2.0450033735593828e-09
269 8.679708086062681e-10 3.407319626453342e-09 4.930233792481959e-10
171 -1.092196899314509e-09 1.0921903583807318e-09 1.2689831897266044e-09
270 -3.407319980393295e-09 -8.679669474248107e-10 4.930252087842885e-10
175 -3.6457258594761103e-09 6.65490948325964e-11 -3.980762362758185e-10
176 6.654736745354638e-11 -3.6457225253910923e-09 -3.980734159227158e-10
273 9.437396688072048e-10 9.437383355297798e-10 -2.6724456851100923e-09
274 1.343391033812532e-09 1.3433885995164197e-09 -1.0501975287105672e-09
179 -5.376595896379651e-09 -3.072373053195627e-09 -6.821543562517421e-09
180 6.182765170525578e-09 -6.7559955386920875e-09 3.7934582167752444e-09
277 2.4222071129505398e-11 6.7474491391557424e-09 -2.853152781459254e-09
278 1.0894577861281565e-09 7.51835746849737e-09 2.333416449290646e-09
279 -5.350676941341314e-09 -1.6658805099652216e-09 8.161755389734792e-15
280 -1.9206354996917965e-09 -2.5907696892617324e-09 5.626305117533339e-15
183 -2.8132413029336995e-09 -1.3129228355458893e-09 -6.672110935193062e-10
184 3.030902567691012e-09 -3.008008564573753e-09 -5.549040234877376e-09
188 -1.658051901650708e-09 1.6580477593086714e-09 -1.4848092758059907e-09
281 3.3521226871411956e-09 1.3449019607444756e-09 5.331538328246297e-09
282 2.1215522518873345e-10 -1.6456770637903792e-09 -3.2771202715951757e-09
285 2.916893951491903e-09 3.357486469787696e-09 5.058802603328603e-10
187 -3.1799525447661e-09 3.1799489179266798e-09 2.890687110312334e-10
192 8.489632287707127e-09 -1.049007924293507e-09 -3.6008295235773504e-09
286 -3.3574813194087528e-09 -2.916898141243484e-09 5.058849786445377e-10
289 -1.6110221279450599e-09 1.201954710351056e-09 -2.044997090303323e-09
191 1.8259026672356496e-09 -1.2446819717324419e-09 -4.667227152810722e-09
290 -6.108701786213265e-09 4.7086768166785413e-11 -4.537816545176743e-09
287 -4.109736902606323e-09 4.109739701132623e-09 4.6671529553030894e-15
195 -6.755990763367062e-09 6.1827680426791955e-09 3.7934569244853804e-09
196 -3.0723800414862875e-09 -5.3766015865592956e-09 -6.821548766892365e-09
293 6.747446701749142e-09 2.4226770196638183e-11 -2.8531538174880153e-09
294 7.518363903858283e-09 1.0894547808764436e-09 2.3334169830035517e-09
295 -2.590768300390157e-09 -1.920635285744221e-09 4.3147210734588315e-15
199 9.936523461061268e-10 -3.1220132820903998e-09 4.864158333683416e-09
200 -3.1220188658894526e-09 9.936515931679396e-10 4.864167759299335e-09
297 1.7124333908804153e-09 1.7124390981991553e-09 1.73258113440448e-09
298 -1.6766204332708473e-09 -1.6766156485082379e-09 -7.815219346336392e-10
203 -4.938888134336101e-09 4.9388821182181435e-09 -3.8165884125830353e-16
204 4.938888692243204e-09 -4.938887283882372e-09 -2.4138051738250782e-15
208 -3.666425271232058e-09 -1.30833107454077e-09 -7.375951879043398e-16
223 -1.3083320744934222e-09 -3.6664256267020664e-09 -1.1607304551367945e-15
301 3.362633457196438e-09 3.3626337207839038e-09 4.0901570377678386e-09
302 -3.3626320860688126e-09 -3.3626348141399845e-09 4.090156372593639e-09
303 6.758647153541437e-09 -6.7586458663362785e-09 8.341562402262345e-09
304 -6.758647633436106e-09 6.7586445223948045e-09 8.341562066572477e-09
305 1.6456711452803086e-09 -2.1215230011954447e-10 3.277123091398722e-09
308 3.0080095341515827e-09 -3.0309065191320613e-09 5.549034710388734e-09
321 -2.1215643083543837e-10 1.6456756938447606e-09 3.2771239919793346e-09
323 -3.030906054610404e-09 3.0080127491725248e-09 5.549041094787158e-09
325 1.6766176521755996e-09 1.6766142333116216e-09 7.815158478501721e-10
207 -2.225770686360776e-09 -2.610452236368714e-09 -1.5683842065848424e-15
212 1.3732358229111233e-09 -5.211753103620183e-09 -1.886403998616637e-15
227 -8.344029437123394e-09 5.015161813281024e-09 -6.886596540418171e-16
306 -1.3449016166501265e-09 -3.352118255798552e-09 -5.331529721465432e-09
307 1.312926644340446e-09 2.8132432437884935e-09 6.672139229475415e-10
309 -5.313349752639196e-09 -2.2183401509510853e-09 -3.1132762733560253e-10
312 3.3899817384954075e-09 -1.6524147884866933e-09 -8.169876631849223e-10
327 3.1220178923642756e-09 -9.9365657301704e-10 -4.8641633358405825e-09
329 -7.518356271117786e-09 -1.0894563360646548e-09 -2.333411151788904e-09
211 -1.4353846251785563e-10 -3.828760108725138e-09 -1.5166852706355413e-15
310 -5.102282550290127e-09 -8.207125293649131e-10 -1.450240305057571e-09
311 4.460026235592051e-09 1.3150422643466074e-09 3.879016611025174e-09
331 3.072373474889361e-09 5.376597489890732e-09 6.821540015084834e-09
215 -1.3732361635125507e-09 5.211748668816938e-09 1.2830311977843864e-16
235 9.99678022285671e-10 5.573749295106125e-09 -1.1560739956472108e-15
313 5.102283988523751e-09 8.207165860114732e-10 -1.4502398417109942e-09
314 5.313350572487765e-09 2.2183400232943755e-09 -3.113317095430548e-10
315 -3.3899826339277193e-09 1.6524181092879892e-09 -8.169788218339178e-10
316 -4.460025691177888e-09 -1.3150441650131777e-09 3.879019554221543e-09
333 6.108701802773793e-09 -4.709068622307479e-11 4.537812257055434e-09
335 -8.489630482071805e-09 1.0490120092712871e-09 3.6008277154143378e-09
219 3.6664213685233854e-09 1.3083417953154824e-09 -6.614508785076887e-15
220 2.225772726485653e-09 2.6104468676948575e-09 -7.872163779237324e-16
239 -5.5601193775214924e-09 5.560124732228279e-09 -1.0212536794686258e-15
317 1.3449056013247218e-09 3.352121081976269e-09 -5.331530433033389e-09
318 -1.645673052060069e-09 2.1215199269625669e-10 3.2771288130701773e-09
319 -3.0080118189333515e-09 3.030909967052162e-09 5.549034986177186e-09
320 -1.312926895738469e-09 -2.8132441125633248e-09 6.672067802029839e-10
337 3.35748307572277e-09 2.916897583259819e-09 -5.05877559189276e-10
339 1.6580530713293224e-09 -1.6580550669950536e-09 1.4848087445217393e-09
224 -2.6104522978330558e-09 -2.2257701091075504e-09 1.2851551158460707e-15
228 5.015161429609078e-09 -8.344030910723818e-09 -2.3217033139654117e-15
243 -5.21175673001635e-09 1.3732346431415896e-09 -8.798053537736327e-16
322 -3.3521230925694506e-09 -1.3449019582546433e-09 -5.33153423259352e-09
324 2.8132463831979526e-09 1.31292393436875e-09 6.672077008649387e-10
328 -9.93657088371906e-10 3.1220184379932975e-09 -4.864155395104262e-09
341 -2.218337961874911e-09 -5.313351813467657e-09 -3.113344005287701e-10
343 -1.652413270790253e-09 3.3899818222401116e-09 -8.169820427436654e-10
345 -1.0894549550561935e-09 -7.518348815592854e-09 -2.3334103735553e-09
342 -8.207167325802883e-10 -5.102285346649304e-09 -1.4502413416773359e-09
344 1.315044786157632e-09 4.4600265345289e-09 3.879021297681238e-09
348 5.3766032888703875e-09 3.072365924056878e-09 6.821539916899796e-09
247 1.9206445487954893e-09 2.5907641957222714e-09 -1.0721261342591411e-15
326 -1.7124258422624297e-09 -1.7124343559887825e-09 -1.7325914568678862e-09
332 6.755997696477408e-09 -6.1827684772163925e-09 -3.793460118425281e-09
347 -6.1827746319822915e-09 6.7559982889489685e-09 -3.7934593193703684e-09
349 -1.3433966051915353e-09 -1.3433966478915227e-09 1.0501916843737176e-09
251 3.019142834663415e-09 -4.495080326849662e-09 -9.815442609775322e-15
252 -4.495075214548875e-09 3.0191470109180443e-09 -5.030689234839413e-15
350 -9.437393269377933e-10 -9.437301012287365e-10 2.672453773876576e-09
236 -2.5514464143196454e-09 7.2534758352079245e-09 -3.4601303208479332e-15
255 -7.79897919215646e-09 7.798985655680066e-09 -2.5154000239778372e-15
330 -6.747453046718044e-09 -2.4231692072010067e-11 2.853156833968791e-09
334 1.6110275561791269e-09 -1.201949765385001e-09 2.045008073671411e-09
336 -1.8258972282033279e-09 1.2446881199604112e-09 4.667223815724515e-09
351 -6.654477181900807e-11 3.645724554423351e-09 3.9807879711152874e-10
353 3.4073279552029167e-09 8.679723678206893e-10 -4.930072693851046e-10
355 -5.623641891694902e-09 5.623626257063326e-09 -3.6408686474083214e-10
256 -1.7726220132826277e-09 1.7726332153684234e-09 -1.5706281721891434e-15
354 -8.679823876904125e-10 -3.4073234015635496e-09 -4.930213558768771e-10
356 1.0921959175828554e-09 -1.0921981272782298e-09 -1.2689930746167177e-09
240 4.1097434880359e-09 -4.109734874162995e-09 -4.627555735092211e-16
259 -5.573750049199353e-09 -9.99687045206725e-10 -1.7706458470416683e-15
338 -2.9168942630799166e-09 -3.3574844734455432e-09 -5.058891892474539e-10
340 3.179942865166519e-09 -3.1799519287929244e-09 -2.890737828736893e-10
357 1.2019525726921677e-09 -1.6110303436045738e-09 2.0450036463027825e-09
359 -1.0490119135656922e-09 8.489638861436685e-09 3.6008304502705038e-09
260 -7.253485732896953e-09 2.551443134849979e-09 -7.9277180881899e-15
358 4.708965492233945e-11 -6.1086967025969166e-09 4.537819978019333e-09
360 -1.2446677146646546e-09 1.8259013422886152e-09 4.667228016266524e-09
263 3.828768732645098e-09 1.435410899049223e-10 -5.930071572485961e-16
264 5.21174603285686e-09 -1.3732354998989695e-09 -1.5897988413024326e-15
361 8.207072647076349e-10 5.102278163743108e-09 -1.450244907938919e-09
362 2.2183465243305293e-09 5.313350436725501e-09 -3.1132770254077075e-10
363 -1.3150468978123755e-09 -4.460020014580641e-09 3.879023555904797e-09
364 1.6524200351183712e-09 -3.3899810846680095e-09 -8.169722657762931e-10
365 -4.708754960241244e-11 6.108708543540148e-09 4.537810877759959e-09
368 1.049009425072478e-09 -8.489636197408569e-09 3.6008244652610205e-09
267 7.253474228082991e-09 -2.551445431425758e-09 -5.394373265197419e-15
272 7.798982644875958e-09 -7.798977872390713e-09 -2.068555367078538e-15
346 -2.4232852211461917e-11 -6.747454251933635e-09 2.8531578144432437e-09
352 3.645729853170437e-09 -6.654510626453598e-11 3.9807374851212403e-10
366 -1.2019538780706774e-09 1.611029565400996e-09 2.0450051105134253e-09
367 1.2446821604864252e-09 -1.825898429416892e-09 4.667224762682617e-09
369 8.679796414335172e-10 3.407323960871447e-09 -4.930116617215316e-10
372 5.623631111925871e-09 -5.623637672123049e-09 -3.6408603195256017e-10
271 1.7726271361170018e-09 -1.7726305085840123e-09 -1.80081471794394e-15
370 -3.407323768352126e-09 -8.679746957826358e-10 -4.930199109454078e-10
371 -1.092199800586297e-09 1.0921916207395116e-09 -1.2689967631559572e-09
275 4.49508111966672e-09 -3.019154051249893e-09 -7.250830019144308e-15
276 -3.0191562189285644e-09 4.4950820296086235e-09 -3.286652387340106e-15
373 9.437401135315508e-10 9.437350820566863e-10 2.6724543876334893e-09
374 1.3433965982472466e-09 1.3433957319841792e-09 1.0502031167412961e-09
375 -3.6457295204367356e-09 6.655426443299829e-11 3.9807254172698504e-10
376 6.655275685502579e-11 -3.6457263322117904e-09 3.980739266765289e-10
377 2.4231464535744677e-11 6.747456133384139e-09 2.8531577399768294e-09
378 1.0894538465002472e-09 7.51835109135028e-09 -2.333424639598882e-09
379 -5.376598501522139e-09 -3.0723806133096705e-09 6.821540227485875e-09
380 6.182759586726525e-09 -6.755997294562853e-09 -3.793464753128607e-09
283 2.6104470970041327e-09 2.2257749368379457e-09 -3.2939568185870288e-15
284 1.3083442645272143e-09 3.6664219382505537e-09 2.624054593079108e-16
288 5.56011924393628e-09 -5.56011870047413e-09 -1.0705401215326441e-15
381 3.3521188917180885e-09 1.3449099825798373e-09 -5.331532174276823e-09
382 2.1214923477941915e-10 -1.6456723948644141e-09 3.277122581679273e-09
383 -2.813248655014587e-09 -1.3129249306525408e-09 6.672086387871548e-10
384 3.0309055642254267e-09 -3.0080181143003616e-09 5.549029986880384e-09
385 2.91690211843704e-09 3.3574808012364916e-09 -5.058834235786824e-10
388 -1.6580517080971316e-09 1.6580536498592077e-09 1.4848155217895975e-09
292 -9.996880906915392e-10 -5.573753625951245e-09 -2.1867121608992565e-15
386 -3.3574830644937077e-09 -2.9169006293673212e-09 -5.058845217989969e-10
387 -3.1799503435212605e-09 3.1799496355098535e-09 -2.8907990970780135e-10
389 -1.611030753346532e-09 1.201950291419481e-09 2.045003966626564e-09
392 8.489637094432122e-09 -1.0490107469713765e-09 3.6008257416226536e-09
291 2.55144384094423e-09 -7.253487101993004e-09 -7.79119632895538e-15
390 -6.108706331619544e-09 4.709268795120694e-11 4.5378215691479325e-09
391 1.8259015586364172e-09 -1.244677285682551e-09 4.667227945101417e-09
296 -1.6658817176815923e-09 -5.3506783030128865e-09 -1.2351968692647152e-15
393 6.747452978010954e-09 2.4228371224541935e-11 2.8531580023822887e-09
394 7.518356858508102e-09 1.0894539683946752e-09 -2.3334191533153715e-09
395 -6.755995851720673e-09 6.182761675452188e-09 -3.793463664771307e-09
396 -3.0723786867526947e-09 -5.376600331859318e-09 6.82154063468714e-09
299 -5.015158654553145e-09 8.344021039763494e-09 3.68786050919226e-16
300 8.34402117392124e-09 -5.01515989093202e-09 -2.405678878632547e-15
397 1.7124308135150818e-09 1.7124320708745743e-09 -1.732588354691634e-09
398 -1.6766153287754598e-09 -1.6766225235017217e-09 7.815277074059932e-10
399 9.936585043603746e-10 -3.122006414632208e-09 -4.864161788097628e-09
400 -3.1220124919190054e-09 9.936552709813928e-10 -4.864160740601296e-09
402 3.6745314985940177e-09 3.674534976057357e-09 -4.479925783629021e-09
403 1.6484787166441305e-09 -1.6484806663639733e-09 -4.142768809616667e-09
404 -1.6484795789179258e-09 1.6484778413682628e-09 -4.142770570806462e-09
408 7.8592339071413e-09 -1.5815670342931218e-10 -5.428021370675657e-09
423 -1.5815673238847323e-10 7.859233055210062e-09 -5.428022082834618e-09
425 -2.224617088114835e-09 -2.224614200472776e-09 -2.5419190745883515e-09
406 -2.106027923640148e-09 -8.05703183688622e-10 2.1688881509584217e-09
409 7.577272642267751e-10 1.889325718220612e-09 -1.7776220285621054e-09
412 -3.052789516278268e-09 -7.361954187823442e-11 -4.949376600222804e-10
427 3.442097458442022e-09 -3.2336630068277236e-09 5.998435318088322e-09
429 -5.692592466967263e-09 5.112119261029868e-09 -3.4574174733300525e-09
410 3.27568786416892e-09 -8.409087097453484e-10 -3.476539260561496e-09
411 -4.3774026249629357e-10 -1.4177886821872968e-10 1.4565003277072544e-09
431 1.5798800762844909e-09 3.5676758591318326e-09 -1.045262895304561e-09
413 -3.275680767696954e-09 8.409115465611247e-10 -3.4765394241216557e-09
414 -7.577346475800469e-10 -1.8893273712912275e-09 -1.777626905495833e-09
415 3.0527844241939493e-09 7.362134325625238e-11 -4.94934488550893e-10
416 4.377385922256851e-10 1.417758304618359e-10 1.4564917631831248e-09
433 3.5066200951016114e-09 5.289013200885596e-10 -2.9177018584077786e-09
435 2.897295329344932e-10 -2.7475335120078577e-09 -9.390767930333187e-10
421 3.6187874846784413e-09 -2.896089949182486e-09 -1.4912421024976842e-09
417 2.1060256085694607e-09 8.056950306505307e-10 2.1688808269803737e-09
418 2.8960939094955103e-09 -3.6187877133967134e-09 -1.4912457525339831e-09
420 -2.5861431270031655e-10 -2.078992016283862e-09 -2.4681808862931593e-09
437 -2.7096254607489057e-09 2.601663447324625e-09 2.672487296469504e-09
439 -1.3725589081072591e-09 1.3725623368128271e-09 5.589903379843655e-09
422 -8.057002416742607e-10 -2.106032311728739e-09 2.1688796662499184e-09
428 -3.233659925747658e-09 3.4420975998995823e-09 5.998436944587083e-09
441 1.889327904932773e-09 7.577345430232544e-10 -1.7776227897743386e-09
443 -7.362341413176908e-11 -3.0527809372745577e-09 -4.949333264906805e-10
445 5.112123070341553e-09 -5.6925928339803034e-09 -3.4574245659604967e-09
442 -8.409164778925492e-10 3.275686684821861e-09 -3.476535552015872e-09
444 -1.417705513249772e-10 -4.377470306659332e-10 1.4564964589997395e-09
448 3.56767551516792e-09 1.5798795550195919e-09 -1.0452632173459458e-09
426 3.0449300234063408e-09 3.0449315849674605e-09 6.333311155510875e-10
432 6.869210060495515e-09 -8.356800774511158e-10 -1.6106871574898705e-09
447 -8.356828555728783e-10 6.869205425473746e-09 -1.6106847106851133e-09
449 -3.729163222861575e-09 -3.729169078708416e-09 1.8093739319090496e-09
430 -9.109073757224101e-09 -6.694502259430538e-09 -5.4409773612754345e-09
451 4.715606677856858e-09 -3.6855252446106812e-09 -2.119735898104661e-09
446 -6.6945084394041565e-09 -9.109069045302647e-09 -5.4409780480212534e-09
452 -3.6855194402918615e-09 4.715608884388517e-09 -2.119734546574797e-09
434 7.570232330288089e-09 2.6675813403731616e-09 2.7620540820389464e-09
436 -7.449135935252101e-09 -4.833585146240569e-09 -2.656678329360188e-09
453 8.056195856482765e-09 -2.3383987677876076e-09 -2.0392251731311263e-09
455 -1.7098411694973693e-09 1.7098445045289164e-09 3.6696881523406058e-09
454 2.3383964146433805e-09 -8.056190057625212e-09 -2.0392112059250563e-09
456 -2.6437421582077952e-11 2.644805670545539e-11 1.813393256212215e-09
424 2.0789916891885048e-09 2.586103860744795e-10 -2.4681889180278257e-09
438 -2.6016625423508424e-09 2.709623973193633e-09 2.672493203547355e-09
440 -7.041298948132708e-10 7.041346990789886e-10 1.4523261642805996e-09
457 -2.667578784346812e-09 -7.570232166681758e-09 2.7620642686893357e-09
459 2.747528867313027e-09 -2.8972757671361413e-10 -9.39077548898819e-10
458 -5.289090784287995e-10 -3.5066234959515865e-09 -2.917707008435814e-09
460 4.833581812945094e-09 7.449129921811396e-09 -2.656686693578067e-09
461 8.409137025411146e-10 -3.2756792476365007e-09 -3.476542368795532e-09
462 -1.889330285494012e-09 -7.577374779455763e-10 -1.7776296330013957e-09
463 1.4177393452329209e-10 4.3773760298150333e-10 1.4564921157165853e-09
464 7.361755108366308e-11 3.0527820932769867e-09 -4.94933998018165e-10
465 5.289046075628108e-10 3.506623630586024e-09 -2.917702364518984e-09
468 -2.747530980205184e-09 2.8972845464899654e-10 -9.390732845076778e-10
466 2.6675823535059636e-09 7.570227870420302e-09 2.7620599226289276e-09
467 -4.833585649442929e-09 -7.4491308838211866e-09 -2.656685862331944e-09
469 -2.3383985369687923e-09 8.056195149100672e-09 -2.039219102345365e-09
472 1.709842900930146e-09 -1.709841616706786e-09 3.6696878858281356e-09
470 -8.056191261203434e-09 2.3384008418490015e-09 -2.039216587111561e-09
471 2.644428249382535e-11 -2.6444649802368054e-11 1.8133933680157236e-09
450 -3.1141710638566977e-09 -3.1141660422495213e-09 -4.565760385333515e-09
473 3.114170926253771e-09 3.1141658299315906e-09 -4.565754313365747e-09
474 3.729166277061952e-09 3.729167839682475e-09 1.8093707942102678e-09
475 3.6855165658336117e-09 -4.715614636575026e-09 -2.119738309954438e-09
476 -4.71561213357041e-09 3.6855230360683363e-09 -2.119736692251476e-09
477 6.694505944779283e-09 9.109066486701667e-09 -5.440977338226306e-09
478 -5.112109940021532e-09 5.69258939700069e-09 -3.4574161246605522e-09
479 -3.5676787095406845e-09 -1.5798709316906352e-09 -1.045263382727596e-09
480 8.356839700111541e-10 -6.8692113734970436e-09 -1.610681368574829e-09
405 -2.896085708733904e-09 3.61878414166835e-09 -1.4912461988892154e-09
481 8.056962705754263e-10 2.106025895797058e-09 2.1688793506541636e-09
482 -3.618783827550103e-09 2.8960903977539807e-09 -1.491244633173758e-09
483 -2.0789873866845776e-09 -2.586090622271172e-10 -2.468187145461218e-09
485 2.6016584747707215e-09 -2.7096192753085067e-09 2.6724932658982016e-09
488 1.3725576640453406e-09 -1.3725634396249601e-09 5.5899005993209415e-09
407 2.5861291621495653e-10 2.0789996452689792e-09 -2.46819133531207e-09
486 2.7096217405771387e-09 -2.6016572342063418e-09 2.672486386224018e-09
487 7.041308123181702e-10 -7.041328498920368e-10 1.4523283898282274e-09
489 -7.570229608582612e-09 -2.6675809963982392e-09 2.7620604522856113e-09
492 -2.8972503037595326e-10 2.7475328861353768e-09 -9.39078646207234e-10
490 -3.5066228712611123e-09 -5.289042558419798e-10 -2.9177047117970417e-09
491 7.4491313945407965e-09 4.833579356735434e-09 -2.6566850789570876e-09
493 9.10906677915595e-09 6.6945003128504e-09 -5.440978631045995e-09
494 5.692596144997725e-09 -5.112114002539087e-09 -3.457417625806592e-09
495 -6.8692073819024e-09 8.356798528767927e-10 -1.6106814055810605e-09
496 -1.579879205213173e-09 -3.5676700814837018e-09 -1.04526093080271e-09
401 -3.6745332834239436e-09 -3.6745314974120114e-09 -4.4799174995359504e-09
419 -7.859226528465264e-09 1.5815442658915003e-10 -5.428025085722318e-09
484 1.5815455808738134e-10 -7.85922931297725e-09 -5.428021815701132e-09
497 -3.044933225960807e-09 -3.044926669665846e-09 6.333313510993721e-10
498 2.2246146153570833e-09 2.2246176637520363e-09 -2.5419205330413292e-09
499 3.2336604789267347e-09 -3.44209688921813e-09 5.998432154948696e-09
500 -3.4420972213619772e-09 3.2336595469145514e-09 5.998435018359621e-09
