LAMMPS data file via write_data, version 29 Aug 2024, timestep = 28, units = metal

500 atoms
3 atom types

0 17.61192450103172 xlo xhi
0 17.61192450103172 ylo yhi
0 17.61192450103172 zlo zhi

Masses

1 55.2633
2 58.71
3 58.71

Atoms # atomic

1 2 0.0037976722713031416 0.00379767227130363 5.001665453264175e-16 0 0 0
2 3 1.7573947778318686 1.7573947778318681 3.715890679031744e-16 0 0 0
3 1 1.7559395483860862 0.0052529017170842695 1.750368574532153 0 0 0
4 1 0.005252901717085989 1.7559395483860873 1.750368574532153 0 0 0
5 1 3.5156964372274127 0.005182763231295632 1.0556088701813195e-16 0 0 0
8 1 3.5160747802698475 1.7604005686255324 1.7552426165463957 0 0 0
21 1 0.005182763231298448 3.5156964372274113 1.313239805445925e-18 0 0 0
23 1 1.7604005686255322 3.5160747802698453 1.755242616546396 0 0 0
25 1 3.5163538757233206 3.516353875723319 1.2456769575324687e-18 0 0 0
101 1 0.0008681468736175204 0.000868146873617195 3.519238149938294 0 0 0
102 1 1.7603243032295535 1.7603243032295541 3.519238149938294 0 0 0
105 1 3.520303576055359 0.0008363011291836339 3.5198274793986246 0 0 0
121 1 0.0008363011291844825 3.520303576055357 3.5198274793986233 0 0 0
125 1 3.521009895507628 3.5210098955076257 3.52058195824121 0 0 0
6 1 5.281512927037633 1.7608683010588084 8.927114850268972e-16 0 0 0
7 1 5.282099751737002 0.0008246894944970977 1.759982326758771 0 0 0
9 1 7.044539969908928 0.00040893096733460104 6.59042854393527e-19 0 0 0
12 1 7.044385156047511 1.7611120270945313 1.7606984363995206 0 0 0
27 1 5.2819011069548445 3.5211305206305297 1.7601567364331847 0 0 0
29 1 7.044302302113015 3.521814643003586 0 0 0 0
106 1 5.281863099787993 1.7609263238572945 3.5206821716640726 0 0 0
109 1 7.04408261463735 0.0002698007764730988 3.521683321012395 0 0 0
129 1 7.044041007367438 3.521923243948279 3.521713683890964 0 0 0
11 1 8.80587372075502 9.8482907006663e-05 1.761068943174324 0 0 0
31 1 8.805878198372271 3.522188456104682 1.7610353836730501 0 0 0
110 1 8.805793515837573 1.7611295817368977 3.5220692199046897 0 0 0
10 1 8.806041726772216 1.7611779331319486 6.151268553645465e-19 0 0 0
13 1 10.567075224362673 1.4516971223783698e-05 0 0 0 0
14 1 12.328576981225963 1.760783519135837 0 0 0 0
15 1 12.32873179508738 8.042300864283453e-05 1.7606984363995217 0 0 0
16 1 10.567243230379871 1.7610939671961647 1.761068943174324 0 0 0
33 1 10.567328079445598 3.5221585286764574 0 0 0 0
35 1 12.328946294094504 3.5218017603048075 1.7608272681378596 0 0 0
113 1 10.567323435297318 6.286836627584072e-05 3.52206921990469 0 0 0
114 1 12.329034336497541 1.760922649326697 3.521683321012395 0 0 0
133 1 10.567378996462821 3.5221198085203755 3.522080092509774 0 0 0
17 1 14.091604024097261 0.00032414904436477843 5.292741417606825e-16 0 0 0
18 1 15.857420513907478 1.756009686871874 4.53642330031421e-16 0 0 0
19 1 15.857042170865043 0.0007918814776380765 1.7552426165463955 0 0 0
20 1 14.091017199397887 1.7603677606086754 1.7599823267587709 0 0 0
37 1 14.091001058634292 3.520818597250736 6.161017254545768e-16 0 0 0
39 1 15.85281522265658 3.520301728478307 1.7594670531444299 0 0 0
117 1 14.091253851346899 0.00026612624587682757 3.520682171664072 0 0 0
118 1 15.852813375079533 1.7603561489739887 3.5198274793986224 0 0 0
137 1 14.090654902389595 3.5215361378522734 3.521289564991742 0 0 0
22 1 1.7608683010588075 5.281512927037633 9.358939199123282e-17 0 0 0
24 1 0.0008246894944969645 5.282099751737005 1.7599823267587709 0 0 0
28 1 3.521130520630531 5.2819011069548445 1.7601567364331847 0 0 0
41 1 0.0004089309673367074 7.044539969908928 4.214701146165406e-16 0 0 0
43 1 1.7611120270945304 7.044385156047511 1.7606984363995206 0 0 0
45 1 3.5218146430035873 7.044302302113014 2.2627975819988976e-18 0 0 0
122 1 1.7609263238572934 5.281863099787995 3.5206821716640735 0 0 0
141 1 0.0002698007764731199 7.0440826146373485 3.5216833210123952 0 0 0
145 1 3.5219232439482795 7.044041007367436 3.521713683890964 0 0 0
44 1 9.848290700801395e-05 8.80587372075502 1.761068943174324 0 0 0
48 1 3.522188456104683 8.805878198372273 1.7610353836730492 0 0 0
142 1 1.7611295817368966 8.805793515837575 3.52206921990469 0 0 0
26 1 5.281955403843394 5.281955403843395 7.317314045104601e-19 0 0 0
32 1 7.044050451028766 5.282868441099049 1.7608320574052798 0 0 0
47 1 5.2828684410990485 7.044050451028765 1.7608320574052798 0 0 0
49 1 7.044092198517435 7.044092198517434 4.274433816502439e-16 0 0 0
126 1 5.2827137782909475 5.282713778290948 3.5215884192363114 0 0 0
149 1 7.04432547923224 7.044325479232239 3.5220013321156083 0 0 0
30 1 8.80579780978022 5.283217919758951 0 0 0 0
51 1 8.805747829919266 7.044402913753803 1.7610049950984097 0 0 0
130 1 8.805746671367725 5.283216686217191 3.5220603789634217 0 0 0
46 1 5.283217919758949 8.805797809780222 8.538222079224928e-16 0 0 0
52 1 7.044402913753805 8.805747829919268 1.761004995098411 0 0 0
146 1 5.283216686217192 8.805746671367727 3.5220603789634217 0 0 0
50 1 8.805776968292069 8.805776968292069 1.096211915248177e-16 0 0 0
150 1 8.805830983440151 8.80583098344015 3.5221304711519563 0 0 0
34 1 12.329028288497618 5.28286501029784 1.1564119616763743e-17 0 0 0
36 1 10.567380151860759 5.283226821375089 1.7610208172374266 0 0 0
53 1 10.567350399461555 7.0444156875777475 1.274472578716894e-18 0 0 0
55 1 12.328823796177264 7.044293154957626 1.760971764356759 0 0 0
134 1 12.328904575845783 5.283044932191711 3.521922956608889 0 0 0
153 1 10.567297180591579 7.044466964450365 3.52211082492179 0 0 0
54 1 12.328701263557143 8.805766551673337 2.727479014396815e-18 0 0 0
56 1 10.56728710686602 8.805829844268871 1.761031093520842 0 0 0
154 1 12.328649986684525 8.805819770543312 3.5221108249217887 0 0 0
38 1 15.852298353884155 5.282115892500597 7.993845927804723e-16 0 0 0
40 1 14.090562844094393 5.282554107040499 1.7606533983630774 0 0 0
57 1 14.090251940837051 7.0440886626372725 1.4362046027270703e-18 0 0 0
59 1 15.851315190830084 7.044170657040385 1.7608272681378607 0 0 0
138 1 15.851580813282615 5.282462048745299 3.5212895649917435 0 0 0
157 1 14.090072018943182 7.044212375289105 3.5219229566088885 0 0 0
58 1 15.850958422458431 8.805788871689293 2.0360870284105142e-16 0 0 0
60 1 14.089890129759805 8.805736799274134 1.7610208172374262 0 0 0
158 1 15.850997142614515 8.80573795467207 3.522080092509774 0 0 0
42 1 1.7611779331319477 8.806041726772218 1.3130883709665148e-18 0 0 0
61 1 1.4516971226794079e-05 10.567075224362673 2.6628238859503164e-18 0 0 0
62 1 1.7607835191358348 12.328576981225963 2.660885050768079e-16 0 0 0
63 1 1.7610939671961643 10.56724323037987 1.7610689431743252 0 0 0
64 1 8.042300864220991e-05 12.328731795087384 1.7606984363995208 0 0 0
65 1 3.5221585286764583 10.567328079445595 2.7257764993346896e-16 0 0 0
68 1 3.521801760304808 12.328946294094505 1.760827268137861 0 0 0
161 1 6.28683662766561e-05 10.567323435297316 3.52206921990469 0 0 0
162 1 1.7609226493266965 12.329034336497541 3.5216833210123952 0 0 0
165 1 3.522119808520375 10.567378996462821 3.5220800925097744 0 0 0
66 1 5.282865010297841 12.32902828849762 1.940854385722935e-18 0 0 0
67 1 5.283226821375088 10.567380151860757 1.761020817237427 0 0 0
69 1 7.0444156875777475 10.567350399461555 3.3959663279272395e-16 0 0 0
72 1 7.044293154957629 12.328823796177266 1.7609717643567582 0 0 0
166 1 5.283044932191709 12.328904575845785 3.52192295660889 0 0 0
169 1 7.044466964450366 10.567297180591577 3.5221108249217896 0 0 0
70 1 8.805766551673335 12.328701263557145 5.600369059228829e-16 0 0 0
71 1 8.80582984426887 10.567287106866019 1.7610310935208422 0 0 0
170 1 8.805819770543312 12.328649986684526 3.5221108249217905 0 0 0
73 1 10.567339982842824 10.567339982842821 2.243653246942669e-18 0 0 0
74 1 12.329024752617453 12.329024752617455 6.624001646229321e-16 0 0 0
75 1 12.328714037381086 10.567369121215625 1.7610049950984101 0 0 0
76 1 10.567369121215627 12.328714037381088 1.76100499509841 0 0 0
173 1 10.567285967694742 10.567285967694739 3.522130471151956 0 0 0
174 1 12.328791471902653 12.328791471902651 3.5220013321156074 0 0 0
77 1 14.089899031375941 10.56731914135467 0 0 0 0
78 1 15.851302308131302 12.32881464902188 2.393876250517664e-18 0 0 0
79 1 15.850928495030207 10.567238752762618 1.7610353836730503 0 0 0
80 1 14.090248510035844 12.329066500106126 1.7608320574052803 0 0 0
177 1 14.089900264917699 10.567370279767166 3.5220603789634204 0 0 0
178 1 15.85119370718661 12.329075943767455 3.5217136838909635 0 0 0
81 1 0.00032414904436501885 14.091604024097258 8.838104301806143e-16 0 0 0
82 1 1.7560096868718753 15.85742051390748 5.882429122942778e-16 0 0 0
83 1 1.760367760608675 14.091017199397887 1.7599823267587698 0 0 0
84 1 0.0007918814776377095 15.857042170865045 1.7552426165463955 0 0 0
85 1 3.520818597250737 14.091001058634292 6.613175690247676e-16 0 0 0
88 1 3.5203017284783087 15.852815222656583 1.7594670531444307 0 0 0
181 1 0.00026612624587807256 14.091253851346897 3.5206821716640726 0 0 0
182 1 1.7603561489739876 15.852813375079533 3.5198274793986224 0 0 0
185 1 3.5215361378522747 14.090654902389593 3.521289564991742 0 0 0
86 1 5.282115892500595 15.852298353884157 2.5820915590527623e-16 0 0 0
87 1 5.282554107040498 14.090562844094391 1.7606533983630772 0 0 0
89 1 7.0440886626372725 14.090251940837048 6.659642970466769e-16 0 0 0
92 1 7.044170657040387 15.851315190830084 1.7608272681378614 0 0 0
186 1 5.2824620487452965 15.851580813282618 3.521289564991743 0 0 0
189 1 7.044212375289109 14.09007201894318 3.521922956608889 0 0 0
90 1 8.805788871689295 15.850958422458431 3.3497989322441205e-16 0 0 0
91 1 8.805736799274131 14.089890129759803 1.7610208172374266 0 0 0
190 1 8.805737954672068 15.850997142614515 3.5220800925097735 0 0 0
93 1 10.56731914135467 14.089899031375943 3.701037022037169e-16 0 0 0
94 1 12.328814649021878 15.8513023081313 1.3020153162005735e-18 0 0 0
95 1 12.329066500106126 14.090248510035844 1.7608320574052798 0 0 0
96 1 10.56723875276262 15.850928495030207 1.761035383673047 0 0 0
193 1 10.567370279767166 14.089900264917699 3.52206037896342 0 0 0
194 1 12.329075943767455 15.85119370718661 3.5217136838909635 0 0 0
97 1 14.091161547291499 14.091161547291495 8.637822705562219e-19 0 0 0
98 1 15.856763075411571 15.856763075411573 1.185184706561203e-15 0 0 0
99 1 15.851986430504361 14.091215844180045 1.7601567364331838 0 0 0
100 1 14.091215844180047 15.851986430504363 1.7601567364331852 0 0 0
197 1 14.090403172843944 14.090403172843942 3.521588419236313 0 0 0
198 1 15.852107055627265 15.852107055627265 3.52058195824121 0 0 0
103 1 1.760785766604337 0.00040668349883617183 5.282895848219583 0 0 0
104 1 0.00040668349883778995 1.7607857666043367 5.282895848219583 0 0 0
108 1 3.5214630027872365 1.7609113158260812 5.282671943006418 0 0 0
123 1 1.7609113158260803 3.521463002787235 5.28267194300642 0 0 0
201 1 0.00010506033180319362 0.0001050603318032764 7.044726757016481 0 0 0
202 1 1.7610873897713677 1.7610873897713684 7.044726757016482 0 0 0
205 1 3.5220551318267432 0.00010732200734820473 7.044478776153555 0 0 0
221 1 0.00010732200735027805 3.522055131826743 7.044478776153558 0 0 0
225 1 3.5220645245804407 3.5220645245804403 7.0444243950400445 0 0 0
107 1 5.28252579780625 0.0002736583868381342 5.282481142250541 0 0 0
112 1 7.04401681084572 1.7610715557766257 5.282806002655415 0 0 0
127 1 5.282754923261606 3.5218461467088624 5.2827188658983815 0 0 0
206 1 5.28308853977871 1.761068770150026 7.044343779111097 0 0 0
209 1 7.044295138987419 0.00012010693346405976 7.044333331818744 0 0 0
229 1 7.044370577852547 3.522106279470379 7.044409002512954 0 0 0
111 1 8.805732816379608 0.00011772023444901533 5.283165169764087 0 0 0
131 1 8.805739630668336 3.5221185072668546 5.283177777323682 0 0 0
210 1 8.805760006689608 1.7610974743523544 7.04444740927959 0 0 0
115 1 12.329100140289171 0.00012089432654882292 5.282806002655415 0 0 0
116 1 10.567384134755283 1.761074729868722 5.283165169764086 0 0 0
135 1 12.328918014549775 3.5219942956737964 5.282993274390296 0 0 0
213 1 10.567356944445285 9.497575081685584e-05 7.044447409279589 0 0 0
214 1 12.328821812147472 1.7610723431697066 7.044333331818743 0 0 0
233 1 10.56730627010935 3.5221326664466637 7.044505661030411 0 0 0
119 1 15.851653948347655 0.0002811342770898851 5.282671943006419 0 0 0
120 1 14.090591153328639 1.7609187917163303 5.282481142250541 0 0 0
139 1 15.85152382535358 3.521593125781312 5.282465957801529 0 0 0
217 1 14.090028411356183 0.00012367995314957532 7.044343779111096 0 0 0
218 1 15.851061819308148 1.7610851280958204 7.044478776153558 0 0 0
237 1 14.090022544728 3.5220469384451096 7.044294786622203 0 0 0
219 1 15.850885643147398 6.958444514778325e-05 8.805962250515858 0 0 0
124 1 0.0002736583868421388 5.282525797806252 5.282481142250539 0 0 0
128 1 3.521846146708863 5.2827549232616065 5.282718865898382 0 0 0
143 1 1.7610715557766243 7.044016810845719 5.282806002655417 0 0 0
222 1 1.7610687701500252 5.28308853977871 7.044343779111096 0 0 0
241 1 0.00012010693346614404 7.044295138987419 7.044333331818745 0 0 0
245 1 3.522106279470379 7.044370577852547 7.044409002512954 0 0 0
144 1 0.00011772023445057308 8.80573281637961 5.283165169764086 0 0 0
148 1 3.5221185072668555 8.805739630668336 5.283177777323682 0 0 0
242 1 1.7610974743523538 8.805760006689606 7.044447409279589 0 0 0
132 1 7.0443061376307785 5.283136969590012 5.283099344957222 0 0 0
147 1 5.283136969590012 7.044306137630777 5.283099344957221 0 0 0
226 1 5.283183869882284 5.283183869882285 7.044398972923345 0 0 0
249 1 7.044497540239868 7.044497540239866 7.044549158866609 0 0 0
151 1 8.805823087592286 7.044495840374466 5.283292019333495 0 0 0
230 1 8.805829923312032 5.283280819399045 7.044550648872975 0 0 0
152 1 7.0444958403744655 8.805823087592286 5.283292019333494 0 0 0
246 1 5.283280819399044 8.805829923312032 7.044550648872975 0 0 0
250 1 8.805871175616723 8.805871175616723 7.044618311921777 0 0 0
136 1 10.567311470034491 5.283246165549416 5.283248683393989 0 0 0
155 1 12.32868263796529 7.044434313169599 5.283235591700125 0 0 0
234 1 12.328683359673096 5.283230060993664 7.044487746107833 0 0 0
253 1 10.567256392393574 7.044532839316251 7.044596001075032 0 0 0
156 1 10.567255212996674 8.80586173813822 5.283333706675727 0 0 0
254 1 12.328584111818639 8.805860558741319 7.044596001075033 0 0 0
140 1 14.090148651195362 5.28296829993953 5.282913317024826 0 0 0
159 1 15.851122655461095 7.044198936585115 5.282993274390294 0 0 0
238 1 15.851070012689782 5.2830944064068905 7.044294786622203 0 0 0
257 1 14.089886890141225 7.044433591461795 7.044487746107833 0 0 0
160 1 14.089870785585477 8.805805481100402 5.283248683393992 0 0 0
258 1 15.850984284688227 8.805810681025541 7.044505661030408 0 0 0
163 1 1.7610747298687206 10.567384134755283 5.283165169764084 0 0 0
164 1 0.00012089432654936655 12.329100140289171 5.282806002655415 0 0 0
168 1 3.5219942956737973 12.328918014549776 5.282993274390295 0 0 0
261 1 9.497575081870137e-05 10.567356944445285 7.04444740927959 0 0 0
262 1 1.7610723431697048 12.328821812147472 7.044333331818743 0 0 0
265 1 3.522132666446665 10.56730627010935 7.04450566103041 0 0 0
167 1 5.283246165549414 10.567311470034491 5.28324868339399 0 0 0
172 1 7.044434313169601 12.328682637965292 5.283235591700124 0 0 0
266 1 5.283230060993664 12.328683359673096 7.044487746107833 0 0 0
269 1 7.044532839316252 10.567256392393574 7.044596001075032 0 0 0
171 1 8.805861738138217 10.567255212996672 5.2833337066757275 0 0 0
270 1 8.805860558741315 12.328584111818639 7.044596001075032 0 0 0
175 1 12.328621110760425 10.567293863542604 5.283292019333495 0 0 0
176 1 10.567293863542606 12.328621110760427 5.283292019333496 0 0 0
273 1 10.56724577551817 10.567245775518169 7.044618311921778 0 0 0
274 1 12.328619410895021 12.328619410895024 7.044549158866608 0 0 0
275 1 12.32856905104474 10.567248972170274 8.805962250515858 0 0 0
276 1 10.567248972170276 12.32856905104474 8.805962250515858 0 0 0
179 1 15.850998443868034 10.567377320466553 5.283177777323683 0 0 0
180 1 14.089979981544879 12.328810813504115 5.283099344957221 0 0 0
277 1 14.089836131735847 10.567287027822857 7.044550648872973 0 0 0
278 1 15.851010671664511 12.328746373282344 7.044409002512956 0 0 0
183 1 1.7609187917163303 14.090591153328639 5.282481142250541 0 0 0
184 1 0.0002811342770913633 15.851653948347655 5.282671943006419 0 0 0
188 1 3.5215931257813127 15.851523825353581 5.28246595780153 0 0 0
281 1 0.00012367995314872067 14.090028411356181 7.044343779111097 0 0 0
282 1 1.7610851280958228 15.851061819308148 7.044478776153558 0 0 0
285 1 3.522046938445109 14.090022544728 7.044294786622202 0 0 0
187 1 5.282968299939529 14.09014865119536 5.282913317024825 0 0 0
192 1 7.044198936585115 15.851122655461095 5.282993274390296 0 0 0
286 1 5.2830944064068905 15.851070012689783 7.044294786622202 0 0 0
289 1 7.044433591461795 14.089886890141225 7.044487746107834 0 0 0
191 1 8.805805481100398 14.089870785585473 5.283248683393988 0 0 0
290 1 8.80581068102554 15.850984284688229 7.044505661030409 0 0 0
291 1 8.805850509114196 14.089823413946972 8.805962250515858 0 0 0
195 1 12.328810813504115 14.089979981544879 5.283099344957222 0 0 0
196 1 10.567377320466555 15.850998443868038 5.283177777323683 0 0 0
293 1 10.56728702782286 14.089836131735847 7.044550648872976 0 0 0
294 1 12.328746373282343 15.851010671664511 7.044409002512955 0 0 0
295 1 12.3286206753575 14.089834645072186 8.805962250515858 0 0 0
296 1 10.567288744231764 15.850967220287156 8.805962250515858 0 0 0
199 1 15.851270804426026 14.090362027873287 5.2827188658983815 0 0 0
200 1 14.090362027873288 15.851270804426026 5.2827188658983815 0 0 0
297 1 14.089933081252608 14.089933081252607 7.044398972923344 0 0 0
298 1 15.85105242655445 15.851052426554451 7.044424395040044 0 0 0
203 1 1.7611606006441538 3.184945901735221e-05 8.80596225051586 0 0 0
204 1 3.184945901749447e-05 1.7611606006441534 8.80596225051586 0 0 0
208 1 3.522231307987493 1.7611228656580262 8.80596225051586 0 0 0
223 1 1.7611228656580262 3.5222313079874925 8.80596225051586 0 0 0
301 1 0.00010506033180482725 0.00010506033180510934 10.56719774401524 0 0 0
302 1 1.7610873897713675 1.7610873897713673 10.567197744015239 0 0 0
303 1 1.7607857666043365 0.00040668349883646304 12.329028652812136 0 0 0
304 1 0.0004066834988350489 1.7607857666043365 12.329028652812134 0 0 0
305 1 3.5220551318267437 0.00010732200735025232 10.567445724878164 0 0 0
308 1 3.521463002787237 1.7609113158260798 12.329252558025303 0 0 0
321 1 0.00010732200734791609 3.522055131826743 10.567445724878164 0 0 0
323 1 1.7609113158260796 3.5214630027872356 12.329252558025303 0 0 0
325 1 3.5220645245804407 3.522064524580441 10.567500105991673 0 0 0
207 1 5.283268946205505 7.190261689702579e-05 8.80596225051586 0 0 0
212 1 7.04444196037661 1.7610957247129413 8.80596225051586 0 0 0
227 1 5.283275347638183 3.5221572044387863 8.80596225051586 0 0 0
306 1 5.283088539778711 1.7610687701500243 10.567580721920622 0 0 0
307 1 5.282525797806249 0.0002736583868431315 12.329443358781178 0 0 0
309 1 7.044295138987419 0.00012010693346585783 10.567591169212976 0 0 0
312 1 7.044016810845719 1.7610715557766243 12.329118498376303 0 0 0
327 1 5.2827549232616065 3.5218461467088633 12.329205635133336 0 0 0
329 1 7.044370577852547 3.522106279470379 10.567515498518764 0 0 0
211 1 8.805814084157056 9.444272429960005e-05 8.80596225051586 0 0 0
231 1 8.805828206903133 3.522149730847734 8.80596225051586 0 0 0
310 1 8.805760006689606 1.761097474352353 10.56747709175213 0 0 0
311 1 8.80573281637961 0.00011772023444904064 12.328759331267634 0 0 0
331 1 8.805739630668336 3.5221185072668555 12.328746723708036 0 0 0
215 1 12.32867499075828 9.672539022880064e-05 8.80596225051586 0 0 0
216 1 10.567302866977833 1.7610980073788733 8.80596225051586 0 0 0
235 1 12.328675140652098 3.5221331622117953 8.80596225051586 0 0 0
313 1 10.567356944445285 9.497575081730174e-05 10.567477091752131 0 0 0
314 1 12.328821812147472 1.7610723431697053 10.567591169212976 0 0 0
315 1 12.329100140289171 0.00012089432654809974 12.329118498376303 0 0 0
316 1 10.567384134755283 1.7610747298687224 12.328759331267634 0 0 0
333 1 10.56730627010935 3.5221326664466654 10.567418840001311 0 0 0
335 1 12.328918014549775 3.521994295673798 12.328931226641426 0 0 0
220 1 14.089848004929388 1.7611205474862746 8.80596225051586 0 0 0
239 1 15.850927955792264 3.5221889953426277 8.80596225051586 0 0 0
317 1 14.090028411356181 0.00012367995314750184 10.567580721920622 0 0 0
318 1 15.85106181930815 1.7610851280958235 10.567445724878164 0 0 0
319 1 15.851653948347654 0.00028113427709183667 12.329252558025303 0 0 0
320 1 14.09059115332864 1.7609187917163285 12.32944335878118 0 0 0
337 1 14.090022544728 3.522046938445109 10.567629714409517 0 0 0
339 1 15.851523825353581 3.5215931257813113 12.329458543230189 0 0 0
224 1 7.190261689580408e-05 5.283268946205505 8.80596225051586 0 0 0
228 1 3.522157204438787 5.283275347638182 8.80596225051586 0 0 0
243 1 1.7610957247129413 7.044441960376611 8.80596225051586 0 0 0
322 1 1.7610687701500265 5.283088539778711 10.567580721920622 0 0 0
324 1 0.0002736583868404323 5.28252579780625 12.32944335878118 0 0 0
328 1 3.5218461467088638 5.2827549232616065 12.329205635133336 0 0 0
341 1 0.00012010693346669208 7.04429513898742 10.567591169212974 0 0 0
343 1 1.761071555776625 7.0440168108457195 12.329118498376303 0 0 0
345 1 3.522106279470378 7.044370577852546 10.567515498518764 0 0 0
244 1 9.444272429825295e-05 8.805814084157056 8.80596225051586 0 0 0
248 1 3.5221497308477354 8.805828206903131 8.80596225051586 0 0 0
342 1 1.7610974743523524 8.805760006689606 10.56747709175213 0 0 0
344 1 0.00011772023445013078 8.80573281637961 12.328759331267632 0 0 0
348 1 3.522118507266856 8.805739630668336 12.328746723708036 0 0 0
232 1 7.044496275777387 5.2832823060627065 8.80596225051586 0 0 0
247 1 5.2832823060627065 7.044496275777386 8.80596225051586 0 0 0
326 1 5.283183869882285 5.283183869882285 10.567525528108375 0 0 0
332 1 7.044306137630777 5.283136969590012 12.328825156074497 0 0 0
347 1 5.283136969590012 7.044306137630777 12.328825156074497 0 0 0
349 1 7.044497540239867 7.044497540239866 10.56737534216511 0 0 0
251 1 8.805867978964615 7.0445479000901505 8.80596225051586 0 0 0
330 1 8.805829923312034 5.283280819399045 10.567373852158745 0 0 0
351 1 8.805823087592286 7.044495840374467 12.328632481698223 0 0 0
252 1 7.0445479000901505 8.805867978964615 8.80596225051586 0 0 0
346 1 5.283280819399046 8.805829923312034 10.567373852158743 0 0 0
352 1 7.044495840374466 8.805823087592287 12.328632481698225 0 0 0
350 1 8.805871175616724 8.805871175616723 10.567306189109944 0 0 0
236 1 10.567266442020692 5.283293537187917 8.80596225051586 0 0 0
255 1 12.328597261429927 7.044519689704967 8.80596225051586 0 0 0
334 1 12.328683359673096 5.283230060993665 10.567436754923886 0 0 0
336 1 10.567311470034491 5.283246165549414 12.328675817637729 0 0 0
353 1 10.567256392393572 7.044532839316251 10.567328499956686 0 0 0
355 1 12.328682637965292 7.0444343131695994 12.328688909331596 0 0 0
256 1 10.567239326182637 8.805877624952254 8.80596225051586 0 0 0
354 1 12.328584111818639 8.805860558741317 10.567328499956686 0 0 0
356 1 10.56725521299667 8.80586173813822 12.328590794355991 0 0 0
240 1 14.089878114514761 5.28323883662013 8.80596225051586 0 0 0
259 1 15.850983788923097 7.044441810482793 8.80596225051586 0 0 0
338 1 15.851070012689783 5.283094406406889 10.567629714409517 0 0 0
340 1 14.09014865119536 5.282968299939531 12.329011184006893 0 0 0
357 1 14.089886890141225 7.044433591461794 10.567436754923886 0 0 0
359 1 15.851122655461094 7.044198936585115 12.328931226641426 0 0 0
260 1 14.089823413946972 8.805850509114197 8.80596225051586 0 0 0
358 1 15.850984284688229 8.805810681025541 10.56741884000131 0 0 0
360 1 14.089870785585475 8.805805481100398 12.328675817637729 0 0 0
263 1 1.7610980073788727 10.567302866977835 8.80596225051586 0 0 0
264 1 9.672539022992416e-05 12.328674990758282 8.80596225051586 0 0 0
268 1 3.522133162211795 12.328675140652097 8.80596225051586 0 0 0
361 1 9.497575082008928e-05 10.567356944445285 10.56747709175213 0 0 0
362 1 1.7610723431697046 12.32882181214747 10.567591169212976 0 0 0
363 1 1.7610747298687224 10.567384134755283 12.328759331267634 0 0 0
364 1 0.0001208943265488806 12.329100140289171 12.329118498376303 0 0 0
365 1 3.5221326664466654 10.567306270109349 10.56741884000131 0 0 0
368 1 3.521994295673797 12.328918014549776 12.328931226641426 0 0 0
267 1 5.283293537187918 10.567266442020692 8.80596225051586 0 0 0
272 1 7.044519689704968 12.328597261429927 8.80596225051586 0 0 0
366 1 5.283230060993664 12.328683359673096 10.567436754923886 0 0 0
367 1 5.283246165549415 10.56731147003449 12.328675817637729 0 0 0
369 1 7.044532839316251 10.567256392393574 10.567328499956686 0 0 0
372 1 7.044434313169601 12.328682637965292 12.328688909331596 0 0 0
271 1 8.805877624952254 10.567239326182637 8.80596225051586 0 0 0
370 1 8.805860558741317 12.328584111818639 10.567328499956686 0 0 0
371 1 8.805861738138217 10.567255212996672 12.32859079435599 0 0 0
373 1 10.567245775518169 10.567245775518167 10.567306189109944 0 0 0
374 1 12.328619410895023 12.328619410895024 10.567375342165114 0 0 0
375 1 12.328621110760427 10.567293863542606 12.328632481698223 0 0 0
376 1 10.567293863542607 12.328621110760425 12.328632481698225 0 0 0
279 1 15.850967220287156 10.567288744231762 8.80596225051586 0 0 0
280 1 14.089834645072187 12.328620675357502 8.80596225051586 0 0 0
377 1 14.089836131735847 10.567287027822857 10.567373852158745 0 0 0
378 1 15.851010671664511 12.328746373282346 10.567515498518764 0 0 0
379 1 15.850998443868036 10.567377320466555 12.328746723708036 0 0 0
380 1 14.089979981544879 12.328810813504113 12.328825156074494 0 0 0
283 1 1.761120547486274 14.089848004929388 8.80596225051586 0 0 0
284 1 6.95844451470207e-05 15.850885643147397 8.80596225051586 0 0 0
288 1 3.522188995342627 15.850927955792264 8.80596225051586 0 0 0
381 1 0.00012367995314810338 14.090028411356181 10.567580721920622 0 0 0
382 1 1.7610851280958213 15.851061819308148 10.567445724878162 0 0 0
383 1 1.7609187917163298 14.090591153328639 12.32944335878118 0 0 0
384 1 0.0002811342770918453 15.851653948347654 12.329252558025301 0 0 0
385 1 3.52204693844511 14.090022544728 10.567629714409517 0 0 0
388 1 3.5215931257813122 15.851523825353581 12.329458543230192 0 0 0
287 1 5.28323883662013 14.089878114514761 8.80596225051586 0 0 0
292 1 7.044441810482793 15.850983788923095 8.80596225051586 0 0 0
386 1 5.283094406406891 15.851070012689782 10.567629714409517 0 0 0
387 1 5.2829682999395295 14.09014865119536 12.329011184006893 0 0 0
389 1 7.044433591461794 14.089886890141226 10.567436754923886 0 0 0
392 1 7.044198936585117 15.851122655461094 12.328931226641425 0 0 0
390 1 8.805810681025541 15.850984284688227 10.567418840001311 0 0 0
391 1 8.8058054811004 14.089870785585475 12.32867581763773 0 0 0
393 1 10.56728702782286 14.089836131735845 10.567373852158745 0 0 0
394 1 12.328746373282343 15.851010671664513 10.567515498518762 0 0 0
395 1 12.328810813504113 14.089979981544877 12.328825156074496 0 0 0
396 1 10.567377320466553 15.850998443868038 12.328746723708035 0 0 0
299 1 15.850959746696105 14.089841603496708 8.80596225051586 0 0 0
300 1 14.08984160349671 15.850959746696105 8.80596225051586 0 0 0
397 1 14.089933081252608 14.089933081252605 10.567525528108376 0 0 0
398 1 15.85105242655445 15.85105242655445 10.567500105991675 0 0 0
399 1 15.851270804426026 14.090362027873287 12.329205635133336 0 0 0
400 1 14.090362027873288 15.851270804426028 12.329205635133336 0 0 0
401 1 0.0008681468736175162 0.0008681468736160648 14.092686351093425 0 0 0
402 1 1.760324303229554 1.7603243032295552 14.092686351093427 0 0 0
403 1 1.7559395483860865 0.005252901717084908 15.861555926499568 0 0 0
404 1 0.005252901717086209 1.7559395483860871 15.861555926499568 0 0 0
405 1 3.5203035760553596 0.0008363011291846637 14.092097021633094 0 0 0
408 1 3.5160747802698467 1.7604005686255333 15.856681884485324 0 0 0
421 1 0.0008363011291863002 3.5203035760553596 14.092097021633096 0 0 0
423 1 1.7604005686255317 3.5160747802698467 15.856681884485322 0 0 0
425 1 3.521009895507627 3.5210098955076257 14.09134254279051 0 0 0
406 1 5.2818630997879925 1.7609263238572934 14.091242329367645 0 0 0
407 1 5.282099751737003 0.0008246894944945643 15.85194217427295 0 0 0
409 1 7.044082614637351 0.00026980077647149127 14.090241180019328 0 0 0
412 1 7.044385156047513 1.7611120270945306 15.851226064632199 0 0 0
427 1 5.281901106954843 3.5211305206305314 15.851767764598536 0 0 0
429 1 7.044041007367438 3.521923243948281 14.090210817140758 0 0 0
410 1 8.805793515837573 1.7611295817368964 14.08985528112703 0 0 0
411 1 8.80587372075502 9.848290700676787e-05 15.850855557857395 0 0 0
431 1 8.805878198372271 3.522188456104682 15.850889117358669 0 0 0
413 1 10.567323435297316 6.286836627430407e-05 14.08985528112703 0 0 0
414 1 12.329034336497541 1.7609226493266985 14.090241180019326 0 0 0
415 1 12.32873179508738 8.042300863844964e-05 15.851226064632197 0 0 0
416 1 10.56724323037987 1.7610939671961654 15.850855557857395 0 0 0
433 1 10.567378996462821 3.522119808520374 14.089844408521945 0 0 0
435 1 12.328946294094505 3.521801760304808 15.851097232893858 0 0 0
417 1 14.091253851346899 0.00026612624587783176 14.091242329367647 0 0 0
418 1 15.852813375079531 1.7603561489739858 14.092097021633096 0 0 0
419 1 15.857042170865045 0.0007918814776392939 15.856681884485324 0 0 0
420 1 14.091017199397887 1.7603677606086756 15.851942174272947 0 0 0
437 1 14.090654902389593 3.5215361378522743 14.09063493603998 0 0 0
439 1 15.852815222656583 3.520301728478308 15.85245744788729 0 0 0
422 1 1.760926323857293 5.281863099787992 14.091242329367647 0 0 0
424 1 0.0008246894944985313 5.282099751737002 15.85194217427295 0 0 0
428 1 3.5211305206305314 5.2819011069548445 15.851767764598536 0 0 0
441 1 0.0002698007764729158 7.044082614637349 14.090241180019326 0 0 0
443 1 1.7611120270945317 7.044385156047512 15.851226064632199 0 0 0
445 1 3.5219232439482804 7.044041007367439 14.090210817140758 0 0 0
442 1 1.7611295817368982 8.805793515837573 14.089855281127027 0 0 0
444 1 9.848290700774582e-05 8.805873720755022 15.850855557857397 0 0 0
448 1 3.522188456104682 8.80587819837227 15.85088911735867 0 0 0
426 1 5.2827137782909475 5.2827137782909475 14.090336081795408 0 0 0
432 1 7.044050451028767 5.2828684410990485 15.851092443626438 0 0 0
447 1 5.2828684410990485 7.044050451028766 15.85109244362644 0 0 0
449 1 7.044325479232239 7.044325479232239 14.089923168916112 0 0 0
430 1 8.805746671367723 5.283216686217191 14.089864122068299 0 0 0
451 1 8.805747829919266 7.044402913753802 15.850919505933309 0 0 0
446 1 5.283216686217192 8.805746671367725 14.089864122068297 0 0 0
452 1 7.044402913753803 8.805747829919266 15.850919505933309 0 0 0
450 1 8.80583098344015 8.80583098344015 14.089794029879762 0 0 0
434 1 12.328904575845785 5.283044932191709 14.09000154442283 0 0 0
436 1 10.567380151860759 5.28322682137509 15.850903683794293 0 0 0
453 1 10.567297180591579 7.044466964450366 14.08981367610993 0 0 0
455 1 12.328823796177264 7.044293154957627 15.850952736674962 0 0 0
454 1 12.328649986684525 8.805819770543312 14.089813676109928 0 0 0
456 1 10.567287106866022 8.805829844268871 15.85089340751088 0 0 0
438 1 15.851580813282617 5.282462048745299 14.090634936039978 0 0 0
440 1 14.090562844094395 5.282554107040499 15.85127110266864 0 0 0
457 1 14.090072018943182 7.044212375289106 14.090001544422831 0 0 0
459 1 15.851315190830082 7.044170657040386 15.851097232893856 0 0 0
458 1 15.850997142614515 8.805737954672068 14.089844408521946 0 0 0
460 1 14.089890129759803 8.805736799274131 15.850903683794293 0 0 0
461 1 6.28683662743359e-05 10.567323435297318 14.08985528112703 0 0 0
462 1 1.760922649326699 12.329034336497543 14.090241180019326 0 0 0
463 1 1.7610939671961645 10.56724323037987 15.850855557857397 0 0 0
464 1 8.04230086399629e-05 12.32873179508738 15.851226064632199 0 0 0
465 1 3.5221198085203747 10.567378996462821 14.089844408521945 0 0 0
468 1 3.5218017603048093 12.328946294094504 15.851097232893858 0 0 0
466 1 5.283044932191709 12.328904575845785 14.090001544422831 0 0 0
467 1 5.28322682137509 10.567380151860759 15.850903683794293 0 0 0
469 1 7.044466964450366 10.567297180591575 14.089813676109928 0 0 0
472 1 7.044293154957626 12.328823796177266 15.850952736674962 0 0 0
470 1 8.805819770543314 12.328649986684525 14.08981367610993 0 0 0
471 1 8.805829844268871 10.567287106866019 15.85089340751088 0 0 0
473 1 10.56728596769474 10.567285967694742 14.089794029879764 0 0 0
474 1 12.328791471902651 12.328791471902651 14.089923168916112 0 0 0
475 1 12.328714037381086 10.567369121215625 15.85091950593331 0 0 0
476 1 10.567369121215625 12.328714037381086 15.850919505933309 0 0 0
477 1 14.0899002649177 10.567370279767168 14.089864122068299 0 0 0
478 1 15.85119370718661 12.329075943767451 14.09021081714076 0 0 0
479 1 15.850928495030209 10.567238752762622 15.850889117358667 0 0 0
480 1 14.090248510035847 12.329066500106125 15.85109244362644 0 0 0
481 1 0.0002661262458805471 14.0912538513469 14.091242329367647 0 0 0
482 1 1.7603561489739852 15.852813375079531 14.092097021633096 0 0 0
483 1 1.7603677606086738 14.091017199397887 15.85194217427295 0 0 0
484 1 0.0007918814776392869 15.857042170865045 15.856681884485322 0 0 0
485 1 3.521536137852275 14.090654902389593 14.090634936039976 0 0 0
488 1 3.5203017284783096 15.852815222656583 15.85245744788729 0 0 0
486 1 5.282462048745297 15.851580813282618 14.090634936039978 0 0 0
487 1 5.282554107040498 14.090562844094391 15.85127110266864 0 0 0
489 1 7.044212375289106 14.09007201894318 14.090001544422831 0 0 0
492 1 7.044170657040387 15.851315190830086 15.851097232893856 0 0 0
490 1 8.805737954672068 15.850997142614517 14.089844408521946 0 0 0
491 1 8.805736799274131 14.089890129759803 15.850903683794293 0 0 0
493 1 10.567370279767168 14.089900264917697 14.089864122068299 0 0 0
494 1 12.329075943767453 15.851193707186614 14.090210817140761 0 0 0
495 1 12.329066500106125 14.090248510035845 15.85109244362644 0 0 0
496 1 10.567238752762622 15.850928495030209 15.850889117358669 0 0 0
497 1 14.090403172843944 14.090403172843942 14.090336081795408 0 0 0
498 1 15.852107055627265 15.852107055627265 14.091342542790509 0 0 0
499 1 15.85198643050436 14.091215844180045 15.851767764598536 0 0 0
500 1 14.091215844180045 15.85198643050436 15.851767764598534 0 0 0

Velocities

1 1.095079583441382e-10 1.095082936080599e-10 2.9592172680980244e-16
2 -1.0950565825117875e-10 -1.0950799825650982e-10 -2.0110803350429713e-16
3 1.3531341311412624e-09 -1.3531312878264064e-09 -2.1095550130848793e-09
4 -1.3531346254234032e-09 1.353128928155419e-09 -2.109556465341537e-09
5 1.1656657188528596e-08 6.070152470011117e-10 3.9025434175382154e-16
8 8.458301400517488e-09 4.429985348399276e-09 5.126822903497516e-09
21 6.070065363685901e-10 1.1656660414783392e-08 1.313239805445925e-15
23 4.429989585297766e-09 8.458308489510929e-09 5.126823141179847e-09
25 8.041374578225571e-10 8.041435981754058e-10 1.2456769575324686e-15
101 -2.6060798115966996e-09 -2.6060785262208385e-09 5.365177838310673e-09
102 2.6060844975852306e-09 2.606079486921176e-09 5.3651765535594785e-09
105 -1.0787314301566035e-09 -1.2607840363330148e-10 8.223596521893233e-10
121 -1.2608180709217031e-10 -1.0787229044522007e-09 8.223616694527557e-10
125 1.2220430027496968e-09 1.2220506307330554e-09 7.68808081623685e-09
6 4.329650390219454e-09 4.818668884607299e-09 -2.3572291065003768e-15
7 8.213355269019647e-09 -3.0310532260192155e-09 6.37396416298123e-09
9 4.25252620537185e-09 -9.467999014428173e-09 6.590428543935269e-16
12 1.6331147652400761e-09 1.4555094168573555e-09 3.920410079768197e-09
27 6.454784628702468e-09 -7.029787485294877e-10 -1.0565530133802246e-09
29 -5.995333620516829e-10 -4.446429425201233e-10 -6.20155544854651e-16
106 1.7772015443565174e-09 -1.1601716896389963e-09 3.6917766871282967e-09
109 -1.181165204582043e-09 -3.879900286792785e-09 3.7133894388584793e-09
129 -5.088953514440654e-09 -3.6112812587264452e-09 4.031266258039608e-09
11 1.74457178001322e-09 -2.7655470106082358e-09 -4.196931716745933e-09
31 -2.960928142859655e-09 -5.595672251437816e-09 1.1473312329476793e-09
110 9.301918775079074e-10 5.4183016812322806e-09 5.019652630030817e-09
10 4.664943799718132e-10 1.5487483284862478e-09 6.151268553645465e-16
13 -4.664901717354033e-10 -1.5487504267623945e-09 -1.3883513072334225e-15
14 -4.2525239679061215e-09 9.467995319705614e-09 -3.2408584627438407e-15
15 -1.6331132503250364e-09 -1.4555162635760377e-09 3.9204050869999466e-09
16 -1.744572326886899e-09 2.7655468167721023e-09 -4.196931714928719e-09
33 -4.975858389722331e-09 -5.984918829687876e-09 -4.941614664443651e-16
35 -2.3206018013907235e-10 -4.3391328423257626e-09 -6.562984715075773e-10
113 -9.301928252401887e-10 -5.4183082861985344e-09 5.019651456053944e-09
114 1.1811646748976562e-09 3.879908456985818e-09 3.713388708925359e-09
133 4.86068606530703e-09 -2.3930290834086707e-09 3.0432773561625914e-09
17 -4.329656816644456e-09 -4.818675373271873e-09 -2.4427895873671835e-15
18 -1.1656655690027634e-08 -6.070089962702737e-10 -2.011049886568483e-16
19 -8.458302269301828e-09 -4.429983275931616e-09 5.1268237311685785e-09
20 -8.21335433542608e-09 3.0310525554673406e-09 6.373964447375182e-09
37 -1.613916897068461e-09 -1.288793933646486e-09 -1.3497923029135806e-15
39 -5.680044388128661e-09 5.6800533606073695e-09 -1.7131544373531322e-09
117 -1.7771990459975747e-09 1.160170334148971e-09 3.691777409432905e-09
118 1.0787277120426185e-09 1.2607571087004993e-10 8.223651410881962e-10
137 -6.3678974745525585e-09 -2.5001884030078214e-10 4.4280968881619733e-10
22 4.818674874143829e-09 4.329647829765275e-09 2.9781483307023665e-16
24 -3.031055067462485e-09 8.213346285169155e-09 6.373965038878259e-09
28 -7.02984565302938e-10 6.4547813849988045e-09 -1.0565532943385071e-09
41 -9.468001747517656e-09 4.252526581648673e-09 -2.9390403763946624e-15
43 1.4555150138757145e-09 1.6331164169879986e-09 3.920410153971091e-09
45 -4.446481556994003e-10 -5.995305682035872e-10 2.2627975819988975e-15
122 -1.1601664415256778e-09 1.777193351225893e-09 3.6917731263358062e-09
141 -3.879901689681802e-09 -1.1811577036347625e-09 3.7133883606449857e-09
145 -3.611283904338856e-09 -5.0889469457816665e-09 4.0312666568366896e-09
44 -2.7655506619964036e-09 1.7445688110905617e-09 -4.196931806092276e-09
48 -5.595676533652335e-09 -2.9609352439767273e-09 1.147335565296417e-09
142 5.418307132873539e-09 9.30183185522235e-10 5.01965297145878e-09
26 -2.66869276243973e-09 -2.6686967268429666e-09 7.3173140451046e-16
32 -2.1272362751433664e-09 1.9103534389007727e-09 4.129913427182578e-09
47 1.9103581200428086e-09 -2.1272314053133776e-09 4.129914294599275e-09
49 5.639107886314079e-09 5.639114615021232e-09 -1.5506890691612398e-16
126 2.4150534714169097e-09 2.415049019074515e-09 2.4037785373221027e-09
149 -6.693658913869238e-09 -6.693655987065937e-09 -5.335540720762909e-09
30 5.1396089979676605e-09 1.1149376774340855e-08 -4.8459033411288745e-17
51 1.6695887663602251e-09 -5.156784189738045e-09 2.740378464444954e-09
130 -7.89980196119965e-09 -4.5290179501091764e-10 -2.1933301901410013e-09
46 1.1149386490760371e-08 5.139602746960573e-09 -1.1630168018709299e-16
52 -5.156789176324017e-09 1.6695810771573895e-09 2.7403746507190246e-09
146 -4.52903785723784e-10 -7.899808067019819e-09 -2.1933304489283297e-09
50 1.93814152644636e-09 1.9381396858265154e-09 -6.202756276644959e-16
150 6.8743514134204524e-09 6.8743517533304935e-09 -6.844422767203435e-09
34 -1.7554587341340452e-09 4.106746158186143e-09 -5.507550750260071e-16
36 -2.5009288169791936e-09 3.663329634025561e-09 7.518984725133879e-09
53 -1.1516422270336499e-08 1.0028030558909841e-09 1.274472578716894e-15
55 3.1957196652250017e-09 -3.195715854899545e-09 5.459428126311134e-09
134 1.006288509718128e-08 -1.0176797262485285e-09 -3.9799818823197555e-09
153 -2.536664222946959e-09 2.1132635954241193e-09 -6.503416140006879e-09
54 -1.0028004445926798e-09 1.1516420420829737e-08 2.727479014396815e-15
56 -5.663118397365426e-09 5.663115594461245e-09 -2.402654323357725e-09
154 -2.1132572075204657e-09 2.5366593624664092e-09 -6.503413200971235e-09
38 1.2887970883768843e-09 1.6139165672441648e-09 -1.8535580279817945e-15
40 -4.353530641924779e-09 4.353524706885732e-09 -5.738309014045671e-09
57 -4.1067469762822275e-09 1.7554608747361289e-09 1.4362046027270702e-15
59 4.3391340046279834e-09 2.3206571830177025e-10 -6.563020465965837e-10
138 2.500272783127906e-10 6.367884852457773e-09 4.428054476773932e-10
157 1.0176711884997605e-09 -1.0062872222336599e-08 -3.979980300702503e-09
58 5.9849267744328285e-09 4.975856764373051e-09 -2.1346204217672692e-15
60 -3.6633362310586595e-09 2.500921274059468e-09 7.518987442171309e-09
158 2.393029621881877e-09 -4.860686534904195e-09 3.0432779968611697e-09
42 1.5487520452941104e-09 4.664881353060444e-10 1.3130883709665147e-15
61 -1.5487618873237962e-09 -4.664894996123957e-10 2.6628238859503165e-15
62 9.468005847151883e-09 -4.252526590725277e-09 -5.89231559385389e-16
63 2.7655487793629553e-09 -1.7445647102448592e-09 -4.196933279549761e-09
64 -1.4555159345973493e-09 -1.633123489281056e-09 3.920409884114849e-09
65 -5.984922013375387e-09 -4.975846516638656e-09 -3.864803123058892e-17
68 -4.33913627451962e-09 -2.3206710870542874e-10 -6.563028543785612e-10
161 -5.418313771761117e-09 -9.301858458663814e-10 5.0196505159486956e-09
162 3.879909116028672e-09 1.1811641850115518e-09 3.7133861560618345e-09
165 -2.393028844729002e-09 4.860687776337114e-09 3.0432768710108848e-09
66 4.106743225833967e-09 -1.755467128335349e-09 1.940854385722935e-15
67 3.6633335908828057e-09 -2.500920010458478e-09 7.518985112806147e-09
69 1.0028016685145363e-09 -1.1516420806826366e-08 3.8767226729030996e-17
72 -3.195724632041972e-09 3.1957115559775438e-09 5.4594338347852696e-09
166 -1.0176705238488856e-09 1.0062877704542187e-08 -3.9799847659581255e-09
169 2.1132610669616583e-09 -2.536656461653259e-09 -6.503413993011421e-09
70 1.1516429476763026e-08 -1.0028085254263563e-09 -4.0758501402135863e-16
71 5.6631242635578326e-09 -5.66311179943422e-09 -2.402653528629577e-09
170 2.5366661268286367e-09 -2.113269914319994e-09 -6.503418383366722e-09
73 -1.9381485495326764e-09 -1.9381380168197945e-09 2.243653246942669e-15
74 -5.639102810761533e-09 -5.639106575843334e-09 -1.875177074540417e-15
75 5.156788971474575e-09 -1.6695883483185235e-09 2.7403760041469447e-09
76 -1.6695945289809126e-09 5.156782905006964e-09 2.7403772723527325e-09
173 -6.874355589340849e-09 -6.874344042079953e-09 -6.84442295016468e-09
174 6.693653898817246e-09 6.693657703673749e-09 -5.335537361217378e-09
77 -1.1149383729466214e-08 -5.139604206396171e-09 -5.883229525089275e-16
78 4.446531924385794e-10 5.995245339955683e-10 2.393876250517664e-15
79 5.595683567043294e-09 2.9609344099850496e-09 1.1473309022984203e-09
80 -1.910359202220218e-09 2.1272352511434166e-09 4.129910551441814e-09
177 4.529032386899295e-10 7.899801475855398e-09 -2.193326812726201e-09
178 3.6112883473767925e-09 5.088945693251301e-09 4.031269195982084e-09
81 -4.818676749508422e-09 -4.329642690079044e-09 -2.6081560388832065e-15
82 -6.070123950657295e-10 -1.1656660323619835e-08 -2.285146294301085e-16
83 3.0310552661445222e-09 -8.213350887868723e-09 6.373966438132849e-09
84 -4.429985798224305e-09 -8.458307764556217e-09 5.126822682939112e-09
85 -1.2887973478409355e-09 -1.6139163698693593e-09 -1.4326695540983365e-15
88 5.6800474809507515e-09 -5.6800500913907295e-09 -1.7131545446781787e-09
181 1.1601677305359667e-09 -1.7771943926242448e-09 3.6917757722747477e-09
182 1.26080669516361e-10 1.0787269267034084e-09 8.223647538702324e-10
185 -2.5002426216150404e-10 -6.367889560666116e-09 4.428092300336111e-10
86 1.6139245887285392e-09 1.2887887752297026e-09 5.815084009354649e-16
87 4.353530113679944e-09 -4.353523240716032e-09 -5.7383063242664474e-09
89 1.7554587460027226e-09 -4.106733864176394e-09 -1.6766825560305906e-15
92 2.3205810538762134e-10 4.339132976255363e-09 -6.563054475121222e-10
186 6.3678947532010515e-09 2.5001607224265115e-10 4.4280703824105377e-10
189 -1.0062889164956258e-08 1.017678396831548e-09 -3.979982176215573e-09
90 4.975850036858445e-09 5.984924525933678e-09 -1.8365973662878434e-15
91 2.5009323807257007e-09 -3.663330240613523e-09 7.51898651054639e-09
190 -4.860679004225349e-09 2.3930279497633553e-09 3.043277864564223e-09
93 -5.139607401982527e-09 -1.1149389028764388e-08 -1.840970036880815e-15
94 5.995367194111196e-10 4.446553669137124e-10 1.3020153162005734e-15
95 2.1272399097258562e-09 -1.910358481809724e-09 4.129913000945227e-09
96 2.960926987852317e-09 5.595679534797411e-09 1.147340281544337e-09
193 7.89980168674159e-09 4.5290639148569324e-10 -2.193326893492834e-09
194 5.0889495464193475e-09 3.611286016667649e-09 4.031268877746075e-09
97 2.6686869071498664e-09 2.6686957795445807e-09 8.637822705562219e-16
98 -8.041397402666924e-10 -8.041459751270786e-10 -2.493217269010806e-15
99 7.029827170735108e-10 -6.454779255445485e-09 -1.0565510331138326e-09
100 -6.454785562994422e-09 7.029781213399296e-10 -1.0565546130249258e-09
197 -2.4150549940774755e-09 -2.415050422138037e-09 2.4037723663907284e-09
198 -1.2220472721561718e-09 -1.2220491238969862e-09 7.68807997115733e-09
103 6.918181836688148e-09 -6.918185071063618e-09 -1.4568356841167618e-09
104 -6.918187806841065e-09 6.918181388290655e-09 -1.456834754914796e-09
108 1.3230904877808454e-09 -3.6871595440062965e-10 2.1027862538818418e-10
123 -3.6871220041551913e-10 1.3230939633677793e-09 2.102740660799192e-10
201 -4.365582495000592e-09 -4.365586198482221e-09 -7.347222706116123e-10
202 4.365588469999412e-09 4.365583968609511e-09 -7.34723481936013e-10
205 -3.260856206780392e-09 -5.102743370511223e-09 -4.431781681613525e-09
221 -5.102752386565202e-09 -3.2608542707568253e-09 -4.431788590568885e-09
225 -5.62194428859459e-09 -5.621942529258089e-09 -4.564019782475367e-09
107 -6.330655498292173e-10 -4.4628738320657295e-09 -1.6872598861287444e-09
112 -1.6742482793709335e-10 8.757772343017286e-09 3.738143455546678e-09
127 -8.16502939685227e-12 -4.5510349498803956e-09 3.273927630460143e-09
206 4.613427347590499e-09 6.211363245483949e-09 4.805814376469999e-10
209 3.6986932702187896e-12 -8.251684697305792e-09 5.284935952003454e-09
229 -9.682688189294783e-10 -1.7568429500779796e-09 4.39932096776688e-09
111 4.5575677037604934e-09 -3.599558512755459e-09 5.030905624375036e-09
131 1.668185815018197e-09 4.250613732658796e-10 -8.019247259581534e-10
210 7.999142303541096e-09 -3.153195867339505e-10 7.334470392401494e-09
115 1.6742435859047337e-10 -8.757783418713282e-09 3.738142827906366e-09
116 -4.557569062599703e-09 3.5995627093077526e-09 5.030908498049252e-09
135 4.8784820952741415e-09 4.068125297897514e-09 -6.524224369777411e-09
213 -7.999146887907625e-09 3.153227462629289e-10 7.334472900610776e-09
214 -3.700309833286494e-12 8.251689647396055e-09 5.284940106002658e-09
233 -3.965295395968471e-09 -4.7033399694763075e-09 5.302455521193208e-09
119 -1.3230924282764613e-09 3.687167822171282e-10 2.1027391025383987e-10
120 6.33073130790691e-10 4.46288489162863e-09 -1.6872613343723884e-09
139 3.3369836642329334e-09 -3.336981621135725e-09 2.247580408200498e-09
217 -4.61343406053989e-09 -6.2113759977814595e-09 4.80583355829692e-10
218 3.2608576001952894e-09 5.102756102767327e-09 -4.4317911389083046e-09
237 -2.862076839707177e-09 2.4250312377938444e-09 -5.603031442383557e-09
219 1.2620778781008436e-08 -2.1347663095045676e-09 8.073880704238345e-15
124 -4.462886412030804e-09 -6.330745230792947e-10 -1.6872551144282983e-09
128 -4.5510376930497375e-09 -8.169398209396776e-12 3.27392591798729e-09
143 8.757777513596151e-09 -1.6741632890024315e-10 3.7381383537190665e-09
222 6.211367684331409e-09 4.61342615538973e-09 4.805863061140785e-10
241 -8.251693485351501e-09 3.69964579309428e-12 5.284932748861345e-09
245 -1.7568434792799648e-09 -9.682699351899972e-10 4.399321293959115e-09
144 -3.599565561121869e-09 4.55756203223637e-09 5.030909109185276e-09
148 4.2505739512942875e-10 1.6681828785445167e-09 -8.019260684551321e-10
242 -3.153160686081248e-10 7.999147868001041e-09 7.334472457362055e-09
132 -2.416896571991286e-09 -1.9556772648333026e-09 -4.595768165143766e-09
147 -1.955675622135642e-09 -2.4168925995620223e-09 -4.595766422738646e-09
226 -8.718951069090309e-10 -8.718980771939257e-10 -7.572168635928317e-10
249 -3.388308359535012e-09 -3.388303908269924e-09 1.7387466826520938e-09
151 4.270725441793467e-09 -5.947390051584286e-10 -7.277431703328226e-09
230 4.928464217366629e-09 -6.502504143642267e-09 4.146731145132283e-09
152 -5.947387554429721e-10 4.270723590615905e-09 -7.277429085328946e-09
246 -6.502500376876161e-09 4.928462266443411e-09 4.146730706179628e-09
250 -9.411687280061631e-10 -9.411697494317266e-10 -2.942754465099796e-09
136 -3.6621223274258036e-09 1.268253922186147e-09 -4.8847896529038245e-09
155 2.8933957421354767e-10 -2.8933079487801996e-10 -3.388891650287235e-09
234 1.3210692363780662e-10 -1.2742115751156768e-09 3.6899579353724277e-09
253 -2.84049669230413e-09 -4.850328870835491e-09 7.187949105788968e-10
156 -1.9052086819971877e-09 1.9052041641024745e-09 -7.134597860748966e-09
254 4.850327682983435e-09 2.8404915454332046e-09 7.187909251262676e-10
140 1.853343533459337e-09 -1.8533503245385663e-09 -4.681310011543578e-09
159 -4.06812332337165e-09 -4.878477049084504e-09 -6.524217767224348e-09
238 -2.4250302263074995e-09 2.862078420380273e-09 -5.603031711331193e-09
257 1.2742148184550622e-09 -1.321087800423296e-10 3.6899565459575932e-09
160 -1.2682612724495415e-09 3.6621125371627523e-09 -4.884799472029045e-09
258 4.703344343765356e-09 3.965294786452708e-09 5.302462434092011e-09
163 3.5995684613950186e-09 -4.557567389079645e-09 5.030913826066441e-09
164 -8.757786384022218e-09 1.6742129140813343e-10 3.738142738958721e-09
168 4.068120254632374e-09 4.8784768843021995e-09 -6.5242211778784256e-09
261 3.1531446703707056e-10 -7.999146527805898e-09 7.334471031303563e-09
262 8.251695249260317e-09 -3.7006355688517056e-12 5.284938230940935e-09
265 -4.703346287810218e-09 -3.9652959744783815e-09 5.302456269804529e-09
167 1.2682600443303202e-09 -3.6621187693212754e-09 -4.884792071918198e-09
172 -2.893409471534486e-10 2.893326481020862e-10 -3.3888904997362713e-09
266 -1.274209235953975e-09 1.3210711719236678e-10 3.68995791575374e-09
269 -4.850333511765e-09 -2.840497597512174e-09 7.187941422003483e-10
171 1.9052109666936816e-09 -1.905204827439258e-09 -7.134601148555963e-09
270 2.840503511192707e-09 4.8503277209023915e-09 7.187923550049317e-10
175 5.947395595955502e-10 -4.270719667210301e-09 -7.277433090980627e-09
176 -4.270725776460024e-09 5.947337496307361e-10 -7.277435236400812e-09
273 9.411632999450662e-10 9.411699237328126e-10 -2.9427572514942172e-09
274 3.388315322540571e-09 3.388303046474048e-09 1.7387489312071446e-09
275 6.14165777312723e-09 -3.540961451554197e-10 5.3321073989129775e-15
276 -3.541043077070375e-10 6.141654106755331e-09 5.1290420435968885e-15
179 -4.25053933952432e-10 -1.6681766339680706e-09 -8.019291772707146e-10
180 1.955676517467952e-09 2.416892304264787e-09 -4.595764636739325e-09
277 6.5025020004859095e-09 -4.928457573331545e-09 4.146736149935054e-09
278 1.7568477204817682e-09 9.682689080291484e-10 4.399313476756896e-09
183 4.4628858983650494e-09 6.330740772561874e-10 -1.6872609764569963e-09
184 3.687147735901933e-10 -1.323093785129397e-09 2.102760394226204e-10
188 -3.33698571993233e-09 3.336975343514028e-09 2.2475758189620366e-09
281 -6.211372862179129e-09 -4.613427182385834e-09 4.805810808295078e-10
282 5.102748332967058e-09 3.2608565180444996e-09 -4.431790273460255e-09
285 2.425032553339624e-09 -2.8620772656228614e-09 -5.603028254000396e-09
187 -1.8533432454096618e-09 1.8533509098328292e-09 -4.681308555652493e-09
192 -4.878481106468511e-09 -4.068128353419318e-09 -6.524223691341183e-09
286 2.8620778390233065e-09 -2.4250388791222184e-09 -5.60302827376851e-09
289 -1.3211207173231156e-10 1.2742159266525825e-09 3.6899508977543803e-09
191 3.6621263883330283e-09 -1.268248845433292e-09 -4.884786254411237e-09
290 3.965300582690223e-09 4.703335472847128e-09 5.302461219284617e-09
291 1.88613741127255e-09 4.071584312063158e-09 3.788204487360311e-15
195 2.416894471055571e-09 1.955678615122389e-09 -4.595769052131301e-09
196 -1.6681850405242981e-09 -4.250661747042717e-10 -8.019300979923494e-10
293 -4.928473282975401e-09 6.502504535196225e-09 4.146726429355821e-09
294 9.682804049348253e-10 1.7568471229213124e-09 4.399314458052322e-09
295 -6.24616106136302e-10 4.657161791266058e-09 5.7344901061797515e-15
296 -7.084921358475223e-09 2.585893377610516e-09 5.455525316550483e-15
199 4.5510464728990556e-09 8.163202817573704e-12 3.2739286463876295e-09
200 8.15931852317683e-12 4.5510456048766195e-09 3.273929231530458e-09
297 8.718912716420561e-10 8.718959851916623e-10 -7.572125651984846e-10
298 5.621946790505144e-09 5.621942425406276e-09 -4.564016318154626e-09
203 -2.546556786129466e-09 2.546559455010731e-09 1.517823054801728e-16
204 2.5465597518223106e-09 -2.5465559826181183e-09 1.3200543570193875e-15
208 -1.2620776054989049e-08 2.1347574627659406e-09 -6.324637370932825e-17
223 2.1347575802154365e-09 -1.2620774810396387e-08 1.7966186637235302e-15
301 -4.365592671397608e-09 -4.365592715010738e-09 7.347186007484382e-10
302 4.36558948279321e-09 4.365590231788145e-09 7.34722868172068e-10
303 6.918182587803166e-09 -6.918185426593917e-09 1.4568380081817172e-09
304 -6.918180264192514e-09 6.918182577808491e-09 1.4568443953851898e-09
305 -3.260856844707601e-09 -5.102752035451644e-09 4.431782202971095e-09
308 1.323087084021178e-09 -3.687085383911498e-10 -2.1028116251819873e-10
321 -5.102740838777541e-09 -3.2608534736057257e-09 4.431780646316096e-09
323 -3.6871015059840583e-10 1.3230910541599953e-09 -2.1028137536793689e-10
325 -5.621944307358268e-09 -5.621947889642919e-09 4.564022615403827e-09
207 6.53587659884177e-09 -4.311376360757921e-09 1.8765926319983422e-16
212 -4.704794750095278e-09 -6.36855440123061e-09 -7.297627562781264e-16
227 2.5495787408285367e-09 -3.147016316357196e-09 1.0360626525228202e-15
306 4.613424598301371e-09 6.2113701508962095e-09 -4.805863637727565e-10
307 -6.330625411289804e-10 -4.46289244033456e-09 1.6872596511024325e-09
309 3.699846595213978e-12 -8.25169465806011e-09 -5.284936787316042e-09
312 -1.6741641384759186e-10 8.757776428113804e-09 -3.738135659567173e-09
327 -8.16864296586683e-12 -4.551038127134306e-09 -3.2739236854875473e-09
329 -9.68267874133902e-10 -1.756842604958801e-09 -4.399321924590217e-09
211 -1.8988172425852326e-09 -5.276313859100137e-09 5.524081361694134e-16
231 7.084901517942123e-09 -2.585892218128467e-09 1.3179727244684313e-15
310 7.999146893673967e-09 -3.153151963455234e-10 -7.3344698531433125e-09
311 4.557561508064849e-09 -3.5995583140734224e-09 -5.030907365265812e-09
331 1.6681816469978338e-09 4.2505776193923037e-10 8.01925513041968e-10
215 4.70480025435706e-09 6.368562349189404e-09 -1.7219830566183981e-15
216 1.8988239465346227e-09 5.276307869563607e-09 1.4985766789341781e-15
235 3.742897674300764e-09 -4.526540290053403e-09 8.408875659708481e-16
313 -7.999148008229369e-09 3.1531746422828705e-10 -7.33447689060644e-09
314 -3.6999666617564476e-12 8.25169490520118e-09 -5.284938555162155e-09
315 1.6742189953114412e-10 -8.757781786810967e-09 -3.73813616618614e-09
316 -4.5575680540833645e-09 3.599561895195991e-09 -5.030908151078254e-09
333 -3.965294245445128e-09 -4.703346108180531e-09 -5.3024610372239934e-09
335 4.87848458259275e-09 4.068119427149421e-09 6.524216539819499e-09
220 -6.5358810479063255e-09 4.3113776633973135e-09 1.8058183083477045e-15
239 -7.953002068345557e-10 7.952976976882724e-10 -5.378952708653051e-16
317 -4.613426089028893e-09 -6.211368418466836e-09 -4.80585970345979e-10
318 3.2608504264789895e-09 5.1027443790128e-09 4.431781442558588e-09
319 -1.3230881226913429e-09 3.6871093321179546e-10 -2.1028116759983114e-10
320 6.330671948619671e-10 4.462891191605842e-09 1.687257385456322e-09
337 -2.8620792632645855e-09 2.4250316204478406e-09 5.603032791967638e-09
339 3.3369752376074964e-09 -3.3369787205904666e-09 -2.247568793907072e-09
224 -4.311373259379783e-09 6.5358761075126015e-09 9.417000425402912e-16
228 -3.1470186209533565e-09 2.5495803939490195e-09 -9.588289976303056e-16
243 -6.368553141295741e-09 -4.704797995550901e-09 -9.546157473193693e-16
322 6.211361660873556e-09 4.6134236527453685e-09 -4.805848682058379e-10
324 -4.462883388187119e-09 -6.330660658422058e-10 1.6872552146779237e-09
328 -4.5510394507379095e-09 -8.168975312391861e-12 -3.2739213390150214e-09
341 -8.251694725902756e-09 3.695434097352921e-12 -5.284932379361216e-09
343 8.757775308710132e-09 -1.674209518920306e-10 -3.738136563555298e-09
345 -1.7568397993369333e-09 -9.68265485974303e-10 -4.3993217073863955e-09
244 -5.276308107012871e-09 -1.898815426360536e-09 -1.8475006488053834e-15
248 -2.5858961855225343e-09 7.084904703730658e-09 -7.350458083703654e-17
342 -3.153120028952216e-10 7.999147306747001e-09 -7.334471677020183e-09
344 -3.5995626644831466e-09 4.557563573233632e-09 -5.030902805270768e-09
348 4.25058191913773e-10 1.6681817559228622e-09 8.019230012958623e-10
232 6.246291347277955e-10 -4.6571688632393566e-09 3.9965215430990734e-16
247 -4.657167387222081e-09 6.246297092444782e-10 4.478532758734504e-16
326 -8.71896886006602e-10 -8.718973096376192e-10 7.572123984691228e-10
332 -2.4168915896753516e-09 -1.9556760539138688e-09 4.595767945631207e-09
347 -1.9556756007498862e-09 -2.4168905898179622e-09 4.595766932962815e-09
349 -3.3883053818537026e-09 -3.388303194710657e-09 -1.7387470209567208e-09
251 3.54103525990112e-10 -6.141656171328936e-09 -1.166743509762667e-16
330 4.928457911181869e-09 -6.502503793773014e-09 -4.146731429722331e-09
351 4.270723541308603e-09 -5.947434357159374e-10 7.277434197715563e-09
252 -6.141654894700469e-09 3.541026292353497e-10 -5.195776142660134e-16
346 -6.5025035822190465e-09 4.928456221627382e-09 -4.1467277283607855e-09
352 -5.947403558076045e-10 4.270718468339611e-09 7.277426675736635e-09
350 -9.411758563299779e-10 -9.411701439185456e-10 2.942750631384515e-09
236 -1.886124432666273e-09 -4.071574771945035e-09 -9.044388790322702e-16
255 -2.402648970690729e-10 2.4025734548803167e-10 -1.5368715602264547e-15
334 1.3210623760057318e-10 -1.2742123878370211e-09 -3.689953848241107e-09
336 -3.6621212591365277e-09 1.2682615413397974e-09 4.88479548039363e-09
353 -2.840491150416342e-09 -4.8503295949951714e-09 -7.18792106618076e-10
355 2.893314783653793e-10 -2.893339119164552e-10 3.3888863747352906e-09
256 -6.431717668987356e-10 6.431700609570701e-10 -5.539556072558872e-16
354 4.850326476959241e-09 2.840495109595112e-09 -7.187909466299638e-10
356 -1.9051993519691438e-09 1.905205222478347e-09 7.134601511028586e-09
240 -1.76005479958385e-09 1.7600560103025128e-09 -7.714072381159527e-16
259 4.526533873057933e-09 -3.7428981805095525e-09 -3.246755238556346e-16
338 -2.4250346869615248e-09 2.8620838914051452e-09 5.603032586319615e-09
340 1.8533507947426248e-09 -1.8533530114405344e-09 4.6813092583084775e-09
357 1.2742172026395061e-09 -1.3210770728047743e-10 -3.689954230221534e-09
359 -4.068119963494855e-09 -4.878480745997663e-09 6.524213950469729e-09
260 4.071584219078851e-09 1.886129611375269e-09 -7.795657706941814e-16
358 4.703337474545935e-09 3.965295012321966e-09 -5.302458521025063e-09
360 -1.268254528360711e-09 3.6621239043970363e-09 4.884794374972803e-09
263 5.276310699571158e-09 1.8988172423628133e-09 -8.775060202527782e-16
264 6.368555334067003e-09 4.704795774915695e-09 8.322838988388842e-16
268 -4.526540382466663e-09 3.742901805177816e-09 -1.948810907071794e-16
361 3.153122112690653e-10 -7.999145210931666e-09 -7.334472431466759e-09
362 8.251697827280894e-09 -3.695639328931142e-12 -5.284938665709325e-09
363 3.5995634894981904e-09 -4.557567447230485e-09 -5.0309079097484824e-09
364 -8.757783114248939e-09 1.6742230904783506e-10 -3.738135756617745e-09
365 -4.703346042836553e-09 -3.96529229618578e-09 -5.3024569450076906e-09
368 4.068123377840739e-09 4.878476988121775e-09 6.524214889960958e-09
267 -4.071574769497238e-09 -1.8861235646052596e-09 -1.8833113539403026e-15
272 2.4025181494603643e-10 -2.4026468857928727e-10 7.195740552103038e-17
366 -1.274210047663223e-09 1.321062925795708e-10 -3.689953258617914e-09
367 1.2682576463840583e-09 -3.6621141683640188e-09 4.884793211198828e-09
369 -4.850329350482872e-09 -2.8404956670254306e-09 -7.18793422886571e-10
372 -2.893386861862601e-10 2.893336504868344e-10 3.388887917088365e-09
271 6.431724863204531e-10 -6.431721442216122e-10 6.050635609749854e-17
370 2.84049966837868e-09 4.850329941477261e-09 -7.187914857367105e-10
371 1.905209056333527e-09 -1.905202545032952e-09 7.134603999624737e-09
373 9.411715267301736e-10 9.411751645772759e-10 2.9427511829088893e-09
374 3.388307918254939e-09 3.38830105282138e-09 -1.738761081345265e-09
375 5.947356868598633e-10 -4.27072789045864e-09 7.277435329066482e-09
376 -4.270731017238513e-09 5.947357277637358e-10 7.277429996905358e-09
279 2.585895257636156e-09 -7.0849121628536286e-09 3.392132338790212e-17
280 4.657155077871247e-09 -6.24626231225128e-10 7.780514259000786e-16
377 6.502503539287372e-09 -4.928461862258871e-09 -4.146733567674311e-09
378 1.7568488523409257e-09 9.682643984617862e-10 -4.399320416393349e-09
379 -4.250595648921144e-10 -1.6681843074560113e-09 8.019251691029136e-10
380 1.955678580914168e-09 2.41689644569493e-09 4.595777483363399e-09
283 4.311381192123553e-09 -6.535882897527057e-09 1.0256214117002696e-15
284 -2.1347659587823135e-09 1.2620782497816299e-08 1.0612528317072235e-15
288 7.95301010454747e-10 -7.952991484231909e-10 1.4561960225644202e-15
381 -6.211370020056819e-09 -4.6134282624165415e-09 -4.805839580846166e-10
382 5.102753329093402e-09 3.2608572799113657e-09 4.43178889162063e-09
383 4.462888282549493e-09 6.330719629279858e-10 1.6872548440798938e-09
384 3.687116007349807e-10 -1.3230883092586215e-09 -2.102779347765647e-10
385 2.425028330693277e-09 -2.8620778902317553e-09 5.603031890534379e-09
388 -3.3369825920460593e-09 3.3369786212955884e-09 -2.247581174836071e-09
287 1.7600546188107147e-09 -1.7600559189875219e-09 -1.9000294838508233e-15
292 -3.742897532984592e-09 4.526541015919457e-09 5.693936425826427e-16
386 2.8620755046608066e-09 -2.425028918065032e-09 5.603033241728042e-09
387 -1.8533457656976186e-09 1.8533495142711092e-09 4.6813098434039826e-09
389 -1.3210720741443976e-10 1.2742096154692187e-09 -3.689952186158931e-09
392 -4.878486286551841e-09 -4.068119909847416e-09 6.5242217116630785e-09
390 3.9652983101129905e-09 4.703341510388388e-09 -5.302466301122878e-09
391 3.6621225936837024e-09 -1.2682568733487462e-09 4.8847915782110354e-09
393 -4.928470681674231e-09 6.502506265183718e-09 -4.14673336444924e-09
394 9.68275688810833e-10 1.7568399509843676e-09 -4.399315127392721e-09
395 2.4168992766016235e-09 1.9556870440737648e-09 4.595775138118293e-09
396 -1.6681776224805598e-09 -4.2506566173624007e-10 8.019318360023203e-10
299 3.1470177912485762e-09 -2.549575064294343e-09 -1.7202956861007504e-16
300 -2.5495803853990805e-09 3.147015731133918e-09 -1.46891445027969e-16
397 8.71888047753424e-10 8.719014169950042e-10 7.572061878382533e-10
398 5.621949343993336e-09 5.621949862353559e-09 4.564014640260594e-09
399 4.551045605482357e-09 8.161589131761107e-12 -3.273919190212997e-09
400 8.155795854316788e-12 4.551038921770174e-09 -3.2739226719610057e-09
401 -2.606078154297757e-09 -2.606076198975759e-09 -5.365176785538172e-09
402 2.606081410744802e-09 2.60607669901241e-09 -5.365178946811062e-09
403 1.3531342474429427e-09 -1.3531329360203509e-09 2.109551849012867e-09
404 -1.3531346544988233e-09 1.3531303446735394e-09 2.109552847268955e-09
405 -1.078734354498371e-09 -1.2608129623268636e-10 -8.223563655861127e-10
408 8.458304439982585e-09 4.429983662506575e-09 -5.126822841569687e-09
421 -1.260880619419079e-10 -1.0787333231443842e-09 -8.223630166138846e-10
423 4.429991833796916e-09 8.458304589883791e-09 -5.126817345176582e-09
425 1.2220473631209706e-09 1.2220501401255668e-09 -7.688084017395892e-09
406 1.7772053149662111e-09 -1.1601666014404882e-09 -3.6917687438976897e-09
407 8.213352840767769e-09 -3.031048009404269e-09 -6.373964270802579e-09
409 -1.1811677231267288e-09 -3.879897369558974e-09 -3.7133974963842596e-09
412 1.6331084111013756e-09 1.4555117428909594e-09 -3.920410466531857e-09
427 6.454789203039089e-09 -7.02984790907186e-10 1.0565505965371014e-09
429 -5.088955344531218e-09 -3.6112884654105044e-09 -4.031269763569877e-09
410 9.301889792031103e-10 5.4183053835024334e-09 -5.019655798891944e-09
411 1.744572371163738e-09 -2.7655475509264583e-09 4.196936430598408e-09
431 -2.9609268900741497e-09 -5.59567234157919e-09 -1.1473310097870278e-09
413 -9.301879216355787e-10 -5.418302543803075e-09 -5.019653876279794e-09
414 1.181162742446701e-09 3.879901632114982e-09 -3.7133897949442354e-09
415 -1.6331124739689668e-09 -1.4555037417662408e-09 -3.920401329000513e-09
416 -1.7445665783051048e-09 2.7655441660629744e-09 4.196933830241245e-09
433 4.860684507599383e-09 -2.393024493422501e-09 -3.043273265397634e-09
435 -2.3206514441330386e-10 -4.339132207133839e-09 6.563005969660721e-10
417 -1.777200781342062e-09 1.1601662257315447e-09 -3.6917745730651056e-09
418 1.0787340112626587e-09 1.260856296012996e-10 -8.223620086659896e-10
419 -8.458306880178857e-09 -4.429988196946459e-09 -5.126823676046428e-09
420 -8.213353961685786e-09 3.031051095941828e-09 -6.373959283156565e-09
437 -6.367887958681814e-09 -2.500202655192866e-10 -4.4281474938885653e-10
439 -5.68004756109745e-09 5.6800500669736945e-09 1.7131534291023682e-09
422 -1.1601624824226482e-09 1.7772062217771694e-09 -3.691776139957664e-09
424 -3.03106019442822e-09 8.21335531664579e-09 -6.373963008444759e-09
428 -7.029859509378892e-10 6.454783589858464e-09 1.056550749177437e-09
441 -3.879898668261069e-09 -1.1811605324119085e-09 -3.7133901136505193e-09
443 1.4555098578345595e-09 1.6331124269923351e-09 -3.920410406242005e-09
445 -3.6112852496804047e-09 -5.088956667796163e-09 -4.0312697794507315e-09
442 5.418300891350036e-09 9.301905247942797e-10 -5.01965039843554e-09
444 -2.765549495345174e-09 1.7445657000206166e-09 4.1969292489696565e-09
448 -5.595672267078158e-09 -2.9609241259003723e-09 -1.147336727365866e-09
426 2.4150512205961833e-09 2.415051930728321e-09 -2.403778198586834e-09
432 -2.127239484647471e-09 1.910356851153785e-09 -4.129909394438617e-09
447 1.9103589266094652e-09 -2.127235727556289e-09 -4.129914006570896e-09
449 -6.6936577642388856e-09 -6.6936568979325e-09 5.335538532596202e-09
430 -7.899796245157044e-09 -4.5290051211212774e-10 2.193326406124624e-09
451 1.6695878341638608e-09 -5.1567809081528765e-09 -2.7403768141119976e-09
446 -4.529042472435624e-10 -7.899802848306085e-09 2.1933334996185082e-09
452 -5.156785274605117e-09 1.6695854985863355e-09 -2.7403759448251427e-09
450 6.87435525805348e-09 6.874352569182864e-09 6.844427927442164e-09
434 1.0062878446199056e-08 -1.017672395912301e-09 3.979988428636739e-09
436 -2.5009272075563697e-09 3.6633264770916727e-09 -7.51898836948478e-09
453 -2.5366634981125042e-09 2.1132601186966946e-09 6.503413379219082e-09
455 3.195720160181795e-09 -3.1957208177103046e-09 -5.459433108505506e-09
454 -2.1132609680477323e-09 2.5366650795975693e-09 6.503416837466473e-09
456 -5.663122304700362e-09 5.663116432178151e-09 2.402649556331044e-09
438 2.5002324894416245e-10 6.367884736156093e-09 -4.4280882708923575e-10
440 -4.3535337190734e-09 4.353526525784194e-09 5.738311455472348e-09
457 1.017669901760989e-09 -1.0062879579326479e-08 3.9799829710762264e-09
459 4.3391408099420536e-09 2.3206172830610673e-10 6.563070269737425e-10
458 2.3930283434264534e-09 -4.860680114588036e-09 -3.0432782989386468e-09
460 -3.663331785850951e-09 2.5009329142394933e-09 -7.518988617e-09
461 -5.4183016085437305e-09 -9.301916538897582e-10 -5.019654023171239e-09
462 3.879902104006538e-09 1.1811585976849995e-09 -3.7133871046474134e-09
463 2.7655493075664196e-09 -1.74456638844176e-09 4.196927153513977e-09
464 -1.455511008736603e-09 -1.6331132935004262e-09 -3.920410439576519e-09
465 -2.393026426914273e-09 4.860684637821168e-09 -3.043272327644944e-09
468 -4.3391386050891596e-09 -2.3206298192006478e-10 6.563025890212835e-10
466 -1.017671298108993e-09 1.0062875543571574e-08 3.97998103512601e-09
467 3.663328221537609e-09 -2.500928161570767e-09 -7.51898824310827e-09
469 2.113261517798334e-09 -2.536653020846543e-09 6.503419045291564e-09
472 -3.1957164223617685e-09 3.195710963732675e-09 -5.459435097974205e-09
470 2.536658182516259e-09 -2.113263859129519e-09 6.503415232983854e-09
471 5.663116956383982e-09 -5.6631147608869e-09 2.4026515036477187e-09
473 -6.8743508784557445e-09 -6.874356445148364e-09 6.8444213079382e-09
474 6.693662771330615e-09 6.6936574347314265e-09 5.335541039058368e-09
475 5.1567904706250484e-09 -1.6695881767805256e-09 -2.74038095787061e-09
476 -1.669589703796202e-09 5.156788371838993e-09 -2.740373282274549e-09
477 4.5289893946505903e-10 7.899795045038795e-09 2.1933276339553828e-09
478 3.611290013458935e-09 5.088960926547211e-09 -4.031277805032238e-09
479 5.5956771777197394e-09 2.9609210231770698e-09 -1.1473245172150305e-09
480 -1.910370568286504e-09 2.1272403923439925e-09 -4.129911420978594e-09
481 1.160156473502505e-09 -1.7772069429081604e-09 -3.6917753942942872e-09
482 1.26088539263387e-10 1.0787335418157724e-09 -8.223620051829966e-10
483 3.031059157404905e-09 -8.21335302915226e-09 -6.373962406322339e-09
484 -4.429988987283007e-09 -8.458306601539415e-09 -5.126816890570275e-09
485 -2.500231558403516e-10 -6.367887625757936e-09 -4.42803759229088e-10
488 5.680044512238682e-09 -5.680051166134244e-09 1.7131501986532514e-09
486 6.367893191045947e-09 2.50019016047594e-10 -4.428101572897029e-10
487 4.353528823455783e-09 -4.353522101323009e-09 5.738310131632129e-09
489 -1.0062880038148475e-08 1.0176772858576394e-09 3.979982136085436e-09
492 2.3205892676823765e-10 4.339127820801017e-09 6.563085134545924e-10
490 -4.8606785344887346e-09 2.39302115937475e-09 -3.0432773321809305e-09
491 2.500932528529967e-09 -3.6633291945041394e-09 -7.518989173976015e-09
493 7.899796796026287e-09 4.529110639152185e-10 2.193328642092571e-09
494 5.088953181992726e-09 3.611277428043656e-09 -4.031284049309365e-09
495 2.1272425541575514e-09 -1.910366586390811e-09 -4.129912485461728e-09
496 2.960919589149042e-09 5.5956743890538e-09 -1.1473321534500891e-09
497 -2.415057572268417e-09 -2.415053362995627e-09 -2.4037804735870182e-09
498 -1.222048028722831e-09 -1.2220497138857178e-09 -7.688079101014813e-09
499 7.029895643349318e-10 -6.454779306327471e-09 1.0565497843851153e-09
500 -6.4547791070396954e-09 7.029858011881184e-10 1.0565564017689965e-09
