LAMMPS data file via write_data, version 29 Aug 2024, timestep = 25, units = metal

500 atoms
3 atom types

0 17.551830129269906 xlo xhi
0 17.551830129269906 ylo yhi
0 17.551830129269906 zlo zhi

Masses

1 56.6411
2 58.71
3 58.71

Atoms # atomic

2 1 1.755183012926991 1.7496206562931444 2.0996034324057247e-17 0 0 0
3 1 1.755183012926991 2.468488372604494e-16 1.7496206562931447 0 0 0
4 1 0.00017016801118133554 1.752264253941463 1.752264253941463 0 0 0
5 3 3.511850063840439 6.496491007668658e-17 6.058958273475781e-20 0 0 0
8 1 3.5101958578427976 1.7522642539414632 1.7522642539414628 0 0 0
21 1 0.0002568827341907222 3.5102798246165166 4.988067739997223e-19 0 0 0
23 1 1.755183012926991 3.509694300652187 1.7546617998252187 0 0 0
25 1 3.5101091431197875 3.5102798246165166 0 0 0 0
101 1 0.0002568827341903325 1.263391760531495e-16 3.510279824616517 0 0 0
102 1 1.755183012926991 1.7546617998252187 3.509694300652187 0 0 0
105 1 3.510109143119787 6.62339230323054e-21 3.5102798246165166 0 0 0
121 1 0.0001122728525938572 3.509945534628513 3.509945534628513 0 0 0
125 1 3.510253753001385 3.509945534628513 3.509945534628513 0 0 0
6 1 5.263323704103532 1.7526918962778129 1.0461045434347522e-16 0 0 0
7 1 5.263323704103532 0 1.752691896277813 0 0 0
9 1 7.021166713155099 0 1.3952847676241626e-16 0 0 0
12 1 7.020589244354163 1.7549995125145093 1.754999512514509 0 0 0
27 1 5.265267587905565 3.5099876708198035 1.754924081792123 0 0 0
29 1 7.020573114152915 3.510180658281007 0 0 0 0
31 1 8.775857355625226 3.5103175286095216 1.755174778812234 0 0 0
106 1 5.265267587905565 1.7549240817921234 3.5099876708198035 0 0 0
109 1 7.020573114152915 0 3.510180658281007 0 0 0
110 1 8.775857355625226 1.7551747788122343 3.510317528609521 0 0 0
129 1 7.020602690326378 3.5102464397686814 3.510246439768681 0 0 0
10 1 8.77606007727988 1.7552259132695802 6.1464341819871005e-19 0 0 0
11 1 8.77606007727988 5.673631552603477e-20 1.7552259132695804 0 0 0
13 1 10.531098077561943 0 6.099153919048738e-19 0 0 0
14 1 12.286136077844008 1.7552259132695784 3.478608407984586e-19 0 0 0
15 1 12.286136077844008 3.1635539966035487e-16 1.7552259132695787 0 0 0
16 1 10.531098077561943 1.7552191153849581 1.755219115384958 0 0 0
33 1 10.531098077561941 3.510411774245922 4.3059206651423747e-19 0 0 0
35 1 12.286338799498662 3.510317528609522 1.7551747788122356 0 0 0
113 1 10.531098077561941 4.786349379096834e-16 3.510411774245922 0 0 0
114 1 12.286338799498662 1.7551747788122363 3.5103175286095216 0 0 0
133 1 10.531098077561943 3.5103527718870984 3.510352771887098 0 0 0
1 2 17.550346091283444 3.0887787570261557e-16 0 -1 0 0
17 1 14.041029441968783 4.751598375918351e-16 2.5983058073168364e-16 0 0 0
18 1 15.798872451020356 1.7526918962778144 3.569659851846354e-19 0 0 0
19 1 15.798872451020356 1.6106974972803246e-16 1.7526918962778144 0 0 0
20 1 14.041606910769723 1.75499951251451 1.7549995125145097 0 0 0
37 1 14.04162304097097 3.510180658281007 4.862118816603154e-17 0 0 0
39 1 15.796928567218323 3.5099876708198026 1.7549240817921221 0 0 0
117 1 14.04162304097097 2.646537902004391e-16 3.5101806582810062 0 0 0
118 1 15.796928567218323 1.7549240817921223 3.5099876708198026 0 0 0
137 1 14.041593464797504 3.510246439768681 3.5102464397686806 0 0 0
22 1 1.755183012926991 5.265706571602486 0 0 0 0
24 1 0.00010272447056937691 5.265512851581933 1.755133460788667 0 0 0
28 1 3.51026330138341 5.265512851581933 1.7551334607886668 0 0 0
41 1 2.429263554527212e-07 7.020771411286014 0 0 0 0
42 1 1.7551830129269905 8.775915064634953 1.1229062447861049e-19 0 0 0
43 1 1.7551830129269912 7.020775103286297 1.7551847279154416 0 0 0
45 1 3.5103657829276242 7.020771411286014 0 0 0 0
48 1 3.510367518214943 8.775915064634953 1.7551899545444136 0 0 0
122 1 1.7551830129269912 5.265309809411906 3.5101281265432474 0 0 0
141 1 3.486156953443621e-05 7.020678723477671 3.510328035496144 0 0 0
142 1 1.7551830129269914 8.775915064634953 3.5103649868339124 0 0 0
145 1 3.510331164284444 7.020678723477672 3.5103280354961437 0 0 0
26 1 5.265423495715901 5.265495636441223 3.473395670756651e-17 0 0 0
30 1 8.77581323219463 5.265462161613499 1.614362324396766e-16 0 0 0
32 1 7.0205977177451295 5.265430208185253 1.7551462625969074 0 0 0
46 1 5.265548814547848 8.775915064634953 0 0 0 0
47 1 5.265505006469222 7.020701385618203 1.7551701661166037 0 0 0
49 1 7.020681471378916 7.020687572991488 0 0 0 0
50 1 8.775897359795623 8.775915064634953 0 0 0 0
51 1 8.775869441804394 7.0206800069547874 1.7551646836108206 0 0 0
52 1 7.02070202617138 8.775915064634953 1.7551733163973715 0 0 0
126 1 5.2654521715155544 5.265386693309864 3.510224930855018 0 0 0
130 1 8.775858153815696 5.265497496003165 3.510329172834691 0 0 0
146 1 5.265510298685116 8.775915064634953 3.5103485258401643 0 0 0
149 1 7.020670536986088 7.020678898301841 3.5103290994737493 0 0 0
150 1 8.77588311546575 8.775915064634953 3.510341661655773 0 0 0
34 1 12.28638292292926 5.265462161613499 1.1388356302487367e-20 0 0 0
36 1 10.531098077561943 5.2655090922651535 1.7551683717453443 0 0 0
53 1 10.531098077561943 7.02067429249001 1.7323235707934628e-16 0 0 0
54 1 12.286298795328264 8.775915064634953 2.1781601324667626e-16 0 0 0
55 1 12.286326713319493 7.020680006954787 1.7551646836108206 0 0 0
56 1 10.531098077561943 8.775915064634953 1.7551675318974904 0 0 0
134 1 12.286338001308192 5.265497496003165 3.5103291728346906 0 0 0
153 1 10.531098077561943 7.020704750511231 3.510342084462967 0 0 0
154 1 12.286313039658138 8.775915064634953 3.510341661655774 0 0 0
44 1 17.55182863690894 8.775915064634953 1.7551899545444138 -1 0 0
38 1 15.796772659407985 5.265495636441222 3.782421035068985e-20 0 0 0
40 1 14.041598437378756 5.265430208185252 1.7551462625969076 0 0 0
57 1 14.041514683744968 7.020687572991488 1.196824511825672e-16 0 0 0
58 1 15.79664734057604 8.775915064634953 2.1808021280319614e-19 0 0 0
59 1 15.796691148654666 7.020701385618203 1.7551701661166048 0 0 0
60 1 14.041494128952504 8.775915064634953 1.7551733163973726 0 0 0
138 1 15.796743983608334 5.265386693309865 3.510224930855019 0 0 0
157 1 14.041525618137795 7.020678898301841 3.5103290994737493 0 0 0
158 1 15.796685856438772 8.775915064634953 3.510348525840164 0 0 0
61 1 2.4292635432010495e-07 10.53105871798389 0 0 0 0
62 1 1.755183012926991 12.28612355766742 2.9889991226345924e-19 0 0 0
63 1 1.7551830129269916 10.531055025983607 1.755184727915442 0 0 0
64 1 0.00010272447056824587 12.286317277687973 1.7551334607886675 0 0 0
65 1 3.510365782927624 10.531058717983893 0 0 0 0
68 1 3.51026330138341 12.286317277687973 1.7551334607886668 0 0 0
161 1 3.486156953407534e-05 10.531151405792233 3.510328035496144 0 0 0
162 1 1.7551830129269912 12.286520319858 3.510128126543247 0 0 0
165 1 3.5103311642844446 10.531151405792233 3.510328035496144 0 0 0
66 1 5.265423495715901 12.286334492828683 6.664485500510953e-19 0 0 0
67 1 5.265505006469223 10.531128743651703 1.755170166116604 0 0 0
69 1 7.020681471378916 10.531142556278418 0 0 0 0
70 1 8.77581323219463 12.286367967656407 0 0 0 0
71 1 8.775869441804394 10.531150122315118 1.7551646836108201 0 0 0
72 1 7.0205977177451295 12.286399921084653 1.7551462625969076 0 0 0
166 1 5.2654521715155544 12.286443435960042 3.5102249308550184 0 0 0
169 1 7.020670536986088 10.531151230968064 3.5103290994737497 0 0 0
170 1 8.775858153815696 12.28633263326674 3.5103291728346906 0 0 0
73 1 10.531098077561943 10.531155836779895 2.739732176373323e-16 0 0 0
74 1 12.28638292292926 12.286367967656407 0 0 0 0
75 1 12.286326713319493 10.531150122315118 1.7551646836108208 0 0 0
76 1 10.531098077561943 12.286321037004752 1.7551683717453441 0 0 0
173 1 10.531098077561943 10.531125378758675 3.5103420844629674 0 0 0
174 1 12.286338001308192 12.286332633266742 3.510329172834691 0 0 0
77 1 14.041514683744968 10.531142556278418 9.154640911440402e-19 0 0 0
78 1 15.796772659407985 12.286334492828683 3.5335477446909547e-16 0 0 0
79 1 15.796691148654666 10.531128743651701 1.7551701661166041 0 0 0
80 1 14.041598437378754 12.286399921084653 1.7551462625969079 0 0 0
177 1 14.041525618137795 10.531151230968064 3.5103290994737497 0 0 0
178 1 15.796743983608334 12.28644343596004 3.510224930855019 0 0 0
81 1 0.00025688273419111063 14.041550304653388 4.711944922850156e-17 0 0 0
82 1 1.755183012926991 15.802209472976761 2.27684016212551e-19 0 0 0
83 1 1.755183012926991 14.042135828617718 1.7546617998252187 0 0 0
84 1 0.00017016801118072808 15.799565875328442 1.7522642539414632 0 0 0
85 1 3.510109143119787 14.041550304653388 4.4740321198770305e-17 0 0 0
88 1 3.510195857842797 15.799565875328442 1.752264253941463 0 0 0
181 1 0.00011227285259338577 14.041884594641392 3.5099455346285127 0 0 0
182 1 1.755183012926991 15.797168329444688 3.509694300652187 0 0 0
185 1 3.510253753001385 14.041884594641392 3.509945534628513 0 0 0
86 1 5.263323704103532 15.799138232992092 0 0 0 0
87 1 5.265267587905565 14.041842458450104 1.7549240817921232 0 0 0
89 1 7.020573114152915 14.041649470988899 0 0 0 0
91 1 8.775857355625226 14.041512600660385 1.7551747788122345 0 0 0
92 1 7.020589244354163 15.796830616755395 1.754999512514509 0 0 0
186 1 5.265267587905565 15.796906047477782 3.5099876708198035 0 0 0
189 1 7.020602690326378 14.041583689501223 3.510246439768681 0 0 0
190 1 8.775857355625226 15.796655350457671 3.510317528609521 0 0 0
90 1 8.77606007727988 15.796604216000325 1.0531678569520205e-18 0 0 0
93 1 10.531098077561943 14.041418355023984 7.16763262469134e-17 0 0 0
94 1 12.28613607784401 15.796604216000327 3.896858663675167e-19 0 0 0
95 1 12.286338799498663 14.041512600660385 1.7551747788122356 0 0 0
96 1 10.531098077561943 15.796611013884949 1.7552191153849583 0 0 0
193 1 10.531098077561943 14.041477357382808 3.5103527718870975 0 0 0
194 1 12.286338799498663 15.79665535045767 3.510317528609522 0 0 0
97 1 14.04162304097097 14.0416494709889 1.950988507561323e-16 0 0 0
98 1 15.798872451020356 15.799138232992092 3.15019540973394e-16 0 0 0
99 1 15.796928567218323 14.041842458450104 1.7549240817921223 0 0 0
100 1 14.04160691076972 15.796830616755397 1.754999512514509 0 0 0
197 1 14.041593464797504 14.041583689501223 3.510246439768681 0 0 0
198 1 15.796928567218323 15.796906047477783 3.509987670819803 0 0 0
103 1 1.7551830129269912 4.574365439286554e-19 5.265706571602485 0 0 0
104 1 0.00010272447056909622 1.755133460788667 5.265512851581933 0 0 0
108 1 3.51026330138341 1.7551334607886673 5.265512851581932 0 0 0
123 1 1.7551830129269916 3.510128126543248 5.265309809411906 0 0 0
201 1 2.429263544240752e-07 1.2647470336011915e-19 7.020771411286014 0 0 0
202 1 1.7551830129269912 1.7551847279154422 7.020775103286297 0 0 0
203 1 1.7551830129269912 1.3559700349081178e-16 8.775915064634953 0 0 0
205 1 3.5103657829276242 3.9242618238840715e-19 7.020771411286014 0 0 0
208 1 3.5103675182149425 1.7551899545444136 8.775915064634953 0 0 0
221 1 3.4861569534567955e-05 3.5103280354961437 7.020678723477671 0 0 0
223 1 1.7551830129269907 3.5103649868339124 8.775915064634953 0 0 0
225 1 3.5103311642844437 3.510328035496144 7.020678723477671 0 0 0
107 1 5.265423495715902 2.7019157438957657e-17 5.265495636441223 0 0 0
111 1 8.77581323219463 1.9685418923835213e-16 5.265462161613498 0 0 0
112 1 7.020597717745129 1.7551462625969076 5.265430208185252 0 0 0
127 1 5.265452171515554 3.5102249308550184 5.265386693309864 0 0 0
131 1 8.775858153815696 3.5103291728346915 5.265497496003165 0 0 0
206 1 5.265505006469222 1.755170166116604 7.020701385618203 0 0 0
207 1 5.265548814547847 3.9478788692873645e-19 8.775915064634953 0 0 0
209 1 7.020681471378916 1.2151237110267476e-17 7.020687572991487 0 0 0
210 1 8.775869441804394 1.755164683610821 7.0206800069547874 0 0 0
211 1 8.775897359795623 3.039970989164981e-16 8.775915064634953 0 0 0
212 1 7.020702026171381 1.7551733163973724 8.775915064634953 0 0 0
227 1 5.265510298685116 3.5103485258401648 8.775915064634953 0 0 0
229 1 7.020670536986088 3.51032909947375 7.020678898301841 0 0 0
231 1 8.77588311546575 3.510341661655773 8.775915064634953 0 0 0
115 1 12.28638292292926 1.6372934723731659e-16 5.265462161613499 0 0 0
116 1 10.531098077561943 1.7551683717453446 5.265509092265153 0 0 0
135 1 12.286338001308192 3.510329172834691 5.265497496003165 0 0 0
213 1 10.531098077561943 7.474268796096378e-18 7.02067429249001 0 0 0
214 1 12.286326713319493 1.7551646836108208 7.020680006954787 0 0 0
215 1 12.286298795328264 3.5932999833155353e-19 8.775915064634953 0 0 0
216 1 10.531098077561943 1.7551675318974913 8.775915064634953 0 0 0
233 1 10.531098077561943 3.5103420844629674 7.020704750511231 0 0 0
235 1 12.286313039658138 3.510341661655775 8.775915064634953 0 0 0
204 1 17.55182863690894 1.7551899545444143 8.775915064634953 -1 0 0
119 1 15.796772659407985 2.0803315692879416e-19 5.265495636441223 0 0 0
120 1 14.041598437378754 1.7551462625969079 5.265430208185252 0 0 0
139 1 15.796743983608334 3.5102249308550193 5.265386693309865 0 0 0
217 1 14.041514683744968 4.278863795921789e-19 7.020687572991488 0 0 0
218 1 15.796691148654666 1.7551701661166041 7.020701385618203 0 0 0
219 1 15.796647340576039 1.9600701848963616e-16 8.775915064634953 0 0 0
220 1 14.041494128952506 1.755173316397372 8.775915064634953 0 0 0
237 1 14.041525618137797 3.51032909947375 7.020678898301841 0 0 0
124 1 5.240091734666208e-05 5.265336069978905 5.265336069978905 0 0 0
128 1 3.510313624936631 5.265336069978905 5.265336069978905 0 0 0
143 1 1.755183012926991 7.020613144931742 5.2654436906029645 0 0 0
144 1 3.64049605335157e-05 8.775915064634953 5.265509508461413 0 0 0
148 1 3.5103296208934456 8.775915064634953 5.265509508461413 0 0 0
222 1 1.7551830129269912 5.265443690602965 7.020613144931742 0 0 0
224 1 3.6404960534426146e-05 5.265509508461413 8.775915064634953 0 0 0
228 1 3.510329620893446 5.265509508461413 8.775915064634953 0 0 0
241 1 4.026560083822346e-05 7.020652970138087 7.020652970138086 0 0 0
242 1 1.7551830129269907 8.775915064634953 7.020675723989498 0 0 0
243 1 1.7551830129269907 7.020675723989499 8.775915064634953 0 0 0
244 1 3.9416831282371664e-05 8.775915064634953 8.775915064634953 0 0 0
245 1 3.51032576025314 7.020652970138087 7.020652970138087 0 0 0
248 1 3.5103266090226963 8.775915064634953 8.775915064634953 0 0 0
132 1 7.0206566542700966 5.265475612232584 5.265475612232583 0 0 0
147 1 5.265484226763105 7.020654877783312 5.26547868141008 0 0 0
151 1 8.775877583383593 7.020707088253153 5.2655207832590465 0 0 0
152 1 7.020674311076315 8.775915064634953 5.265517028691264 0 0 0
226 1 5.265484226763105 5.265478681410081 7.020654877783312 0 0 0
230 1 8.775877583383593 5.2655207832590465 7.020707088253152 0 0 0
232 1 7.020674311076315 5.265517028691263 8.775915064634953 0 0 0
246 1 5.265487147234887 8.775915064634953 7.0206944569409915 0 0 0
247 1 5.265487147234888 7.0206944569409915 8.775915064634953 0 0 0
249 1 7.020672002696577 7.020701342871706 7.020701342871706 0 0 0
250 1 8.775880081285703 8.775915064634953 7.020716652646132 0 0 0
251 1 8.775880081285703 7.020716652646132 8.775915064634953 0 0 0
252 1 7.020673660681486 8.775915064634953 8.775915064634953 0 0 0
136 1 10.531098077561943 5.265522040963897 5.265522040963896 0 0 0
155 1 12.286318571740294 7.020707088253154 5.2655207832590465 0 0 0
156 1 10.531098077561943 8.775915064634953 5.265528275922674 0 0 0
234 1 12.286318571740294 5.2655207832590465 7.020707088253154 0 0 0
236 1 10.531098077561943 5.265528275922673 8.775915064634953 0 0 0
253 1 10.531098077561943 7.020718305965073 7.020718305965072 0 0 0
254 1 12.286316073838185 8.775915064634953 7.020716652646129 0 0 0
255 1 12.286316073838185 7.020716652646131 8.775915064634953 0 0 0
256 1 10.531098077561941 8.775915064634953 8.775915064634953 0 0 0
140 1 14.041539500853789 5.265475612232583 5.265475612232584 0 0 0
159 1 15.796711928360784 7.02065487778331 5.265478681410081 0 0 0
160 1 14.041521844047569 8.775915064634953 5.265517028691263 0 0 0
238 1 15.796711928360782 5.26547868141008 7.02065487778331 0 0 0
240 1 14.041521844047567 5.265517028691264 8.775915064634953 0 0 0
257 1 14.041524152427307 7.020701342871706 7.020701342871707 0 0 0
258 1 15.796709007889 8.775915064634953 7.0206944569409915 0 0 0
259 1 15.796709007889 7.020694456940992 8.775915064634953 0 0 0
260 1 14.0415224944424 8.775915064634953 8.775915064634953 0 0 0
163 1 1.755183012926991 10.531216984338164 5.265443690602965 0 0 0
164 1 5.240091734657738e-05 12.286494059291 5.265336069978905 0 0 0
168 1 3.5103136249366313 12.286494059291 5.265336069978906 0 0 0
261 1 4.026560083835012e-05 10.531177159131818 7.020652970138086 0 0 0
262 1 1.7551830129269912 12.286386438666941 7.020613144931742 0 0 0
263 1 1.755183012926991 10.531154405280407 8.775915064634953 0 0 0
264 1 3.640496053317019e-05 12.286320620808493 8.775915064634953 0 0 0
265 1 3.51032576025314 10.531177159131818 7.020652970138087 0 0 0
268 1 3.510329620893446 12.286320620808493 8.775915064634953 0 0 0
167 1 5.265484226763105 10.531175251486594 5.265478681410081 0 0 0
171 1 8.775877583383593 10.531123041016754 5.2655207832590465 0 0 0
172 1 7.0206566542700966 12.286354517037323 5.265475612232583 0 0 0
266 1 5.265484226763105 12.286351447859825 7.020654877783313 0 0 0
267 1 5.265487147234888 10.531135672328913 8.775915064634953 0 0 0
269 1 7.020672002696577 10.531128786398199 7.020701342871707 0 0 0
270 1 8.775877583383593 12.28630934601086 7.020707088253152 0 0 0
271 1 8.775880081285703 10.531113476623773 8.775915064634953 0 0 0
272 1 7.020674311076315 12.286313100578642 8.775915064634953 0 0 0
175 1 12.286318571740294 10.531123041016752 5.265520783259047 0 0 0
176 1 10.531098077561941 12.28630808830601 5.265522040963897 0 0 0
273 1 10.531098077561943 10.531111823304833 7.020718305965072 0 0 0
274 1 12.286318571740294 12.286309346010858 7.020707088253154 0 0 0
275 1 12.286316073838183 10.531113476623776 8.775915064634953 0 0 0
276 1 10.531098077561943 12.286301853347233 8.775915064634953 0 0 0
179 1 15.796711928360784 10.531175251486594 5.26547868141008 0 0 0
180 1 14.041539500853789 12.286354517037323 5.265475612232583 0 0 0
277 1 14.041524152427307 10.5311287863982 7.020701342871706 0 0 0
278 1 15.796711928360784 12.286351447859824 7.020654877783311 0 0 0
279 1 15.796709007889 10.531135672328913 8.775915064634953 0 0 0
280 1 14.041521844047567 12.286313100578642 8.775915064634953 0 0 0
183 1 1.7551830129269916 14.041702002726657 5.265309809411906 0 0 0
184 1 0.00010272447056891543 15.796696668481239 5.265512851581932 0 0 0
188 1 3.5102633013834104 15.796696668481239 5.265512851581933 0 0 0
281 1 3.48615695347583e-05 14.041502093773762 7.020678723477671 0 0 0
282 1 1.7551830129269912 15.796645401354464 7.020775103286297 0 0 0
283 1 1.7551830129269907 14.041465142435994 8.775915064634953 0 0 0
285 1 3.510331164284444 14.041502093773762 7.020678723477672 0 0 0
288 1 3.510367518214943 15.796640174725491 8.775915064634953 0 0 0
187 1 5.265452171515554 14.041605198414887 5.265386693309864 0 0 0
191 1 8.775858153815696 14.041500956435215 5.265497496003165 0 0 0
192 1 7.020597717745129 15.796683866672998 5.265430208185253 0 0 0
286 1 5.265505006469223 15.796659963153301 7.020701385618203 0 0 0
287 1 5.265510298685116 14.041481603429741 8.775915064634953 0 0 0
289 1 7.0206705369860885 14.041501029796155 7.020678898301841 0 0 0
290 1 8.775869441804394 15.796665445659086 7.020680006954787 0 0 0
291 1 8.77588311546575 14.041488467614133 8.775915064634953 0 0 0
292 1 7.020702026171381 15.796656812872534 8.775915064634953 0 0 0
195 1 12.286338001308192 14.041500956435215 5.265497496003164 0 0 0
196 1 10.531098077561943 15.79666175752456 5.265509092265153 0 0 0
293 1 10.531098077561943 14.041488044806938 7.02070475051123 0 0 0
294 1 12.286326713319493 15.796665445659086 7.020680006954786 0 0 0
295 1 12.286313039658138 14.041488467614132 8.775915064634953 0 0 0
296 1 10.531098077561943 15.796662597372414 8.775915064634953 0 0 0
284 1 17.55182863690894 15.796640174725491 8.775915064634953 -1 0 0
199 1 15.796743983608334 14.041605198414887 5.265386693309865 0 0 0
200 1 14.041598437378754 15.796683866672998 5.265430208185253 0 0 0
297 1 14.041525618137797 14.041501029796155 7.020678898301841 0 0 0
298 1 15.796691148654666 15.796659963153301 7.020701385618203 0 0 0
299 1 15.796685856438772 14.041481603429741 8.775915064634953 0 0 0
300 1 14.041494128952504 15.796656812872534 8.775915064634953 0 0 0
301 1 2.429263554822604e-07 2.8614128269274166e-16 10.53105871798389 0 0 0
302 1 1.7551830129269907 1.755184727915442 10.531055025983608 0 0 0
303 1 1.7551830129269905 2.539200408885553e-16 12.28612355766742 0 0 0
304 1 0.0001027244705689859 1.755133460788667 12.286317277687973 0 0 0
305 1 3.5103657829276242 1.5289244840639456e-16 10.53105871798389 0 0 0
308 1 3.5102633013834104 1.7551334607886675 12.286317277687973 0 0 0
321 1 3.4861569534402926e-05 3.510328035496144 10.531151405792233 0 0 0
323 1 1.7551830129269912 3.5101281265432474 12.286520319858 0 0 0
325 1 3.5103311642844446 3.510328035496144 10.531151405792233 0 0 0
306 1 5.265505006469222 1.7551701661166041 10.531128743651703 0 0 0
307 1 5.265423495715901 0 12.286334492828683 0 0 0
309 1 7.020681471378916 7.820510530244879e-16 10.531142556278418 0 0 0
310 1 8.775869441804394 1.7551646836108206 10.531150122315118 0 0 0
311 1 8.77581323219463 8.505702464100562e-16 12.286367967656407 0 0 0
312 1 7.020597717745129 1.755146262596908 12.286399921084653 0 0 0
327 1 5.2654521715155544 3.510224930855018 12.286443435960042 0 0 0
329 1 7.020670536986088 3.5103290994737497 10.531151230968064 0 0 0
331 1 8.775858153815696 3.5103291728346915 12.286332633266742 0 0 0
313 1 10.531098077561943 4.539505659121608e-16 10.531155836779897 0 0 0
314 1 12.286326713319493 1.7551646836108201 10.531150122315118 0 0 0
315 1 12.286382922929258 1.812090673129077e-16 12.286367967656407 0 0 0
316 1 10.531098077561943 1.7551683717453441 12.286321037004752 0 0 0
333 1 10.531098077561943 3.510342084462968 10.531125378758674 0 0 0
335 1 12.286338001308192 3.510329172834691 12.286332633266742 0 0 0
239 1 15.796685856438772 3.510348525840164 8.775915064634955 0 0 0
317 1 14.041514683744968 1.8321101888615393e-19 10.531142556278418 0 0 0
318 1 15.796691148654666 1.7551701661166044 10.531128743651701 0 0 0
319 1 15.796772659407985 3.052300393883659e-16 12.286334492828685 0 0 0
320 1 14.041598437378756 1.755146262596908 12.286399921084653 0 0 0
337 1 14.041525618137797 3.5103290994737497 10.531151230968064 0 0 0
339 1 15.796743983608334 3.510224930855019 12.286443435960042 0 0 0
322 1 1.755183012926991 5.2654436906029645 10.531216984338164 0 0 0
324 1 5.2400917346410144e-05 5.265336069978905 12.286494059291 0 0 0
328 1 3.5103136249366313 5.265336069978905 12.286494059291 0 0 0
341 1 4.026560083801937e-05 7.020652970138087 10.531177159131818 0 0 0
342 1 1.7551830129269907 8.775915064634953 10.531154405280407 0 0 0
343 1 1.7551830129269912 7.020613144931742 12.286386438666941 0 0 0
344 1 3.640496053325425e-05 8.775915064634953 12.286320620808493 0 0 0
345 1 3.51032576025314 7.020652970138086 10.531177159131818 0 0 0
348 1 3.510329620893446 8.775915064634953 12.286320620808493 0 0 0
326 1 5.265484226763104 5.26547868141008 10.531175251486593 0 0 0
330 1 8.775877583383595 5.2655207832590465 10.531123041016754 0 0 0
332 1 7.020656654270097 5.265475612232583 12.286354517037323 0 0 0
346 1 5.265487147234888 8.775915064634953 10.531135672328913 0 0 0
347 1 5.265484226763105 7.020654877783312 12.286351447859824 0 0 0
349 1 7.020672002696577 7.020701342871707 10.531128786398199 0 0 0
350 1 8.775880081285703 8.775915064634953 10.531113476623773 0 0 0
351 1 8.775877583383595 7.020707088253152 12.286309346010858 0 0 0
352 1 7.020674311076315 8.775915064634953 12.286313100578642 0 0 0
334 1 12.286318571740292 5.265520783259047 10.531123041016752 0 0 0
336 1 10.531098077561941 5.265522040963897 12.286308088306008 0 0 0
353 1 10.531098077561943 7.020718305965072 10.531111823304833 0 0 0
354 1 12.286316073838185 8.775915064634953 10.531113476623775 0 0 0
355 1 12.286318571740294 7.020707088253155 12.28630934601086 0 0 0
356 1 10.531098077561943 8.775915064634953 12.286301853347233 0 0 0
338 1 15.796711928360782 5.26547868141008 10.531175251486594 0 0 0
340 1 14.041539500853789 5.265475612232583 12.286354517037323 0 0 0
357 1 14.041524152427307 7.020701342871707 10.531128786398199 0 0 0
358 1 15.796709007889 8.775915064634953 10.531135672328913 0 0 0
359 1 15.796711928360782 7.020654877783311 12.286351447859825 0 0 0
360 1 14.041521844047567 8.775915064634953 12.286313100578642 0 0 0
361 1 4.0265600837796036e-05 10.531177159131818 10.531177159131818 0 0 0
362 1 1.755183012926991 12.286386438666941 10.531216984338164 0 0 0
363 1 1.7551830129269912 10.531216984338165 12.286386438666941 0 0 0
364 1 5.2400917347797334e-05 12.286494059291 12.286494059291 0 0 0
365 1 3.5103257602531404 10.531177159131818 10.531177159131818 0 0 0
368 1 3.510313624936631 12.286494059291 12.286494059291 0 0 0
366 1 5.265484226763105 12.286351447859825 10.531175251486594 0 0 0
367 1 5.265484226763105 10.531175251486594 12.286351447859825 0 0 0
369 1 7.020672002696577 10.531128786398199 10.5311287863982 0 0 0
370 1 8.775877583383595 12.28630934601086 10.531123041016754 0 0 0
371 1 8.775877583383593 10.531123041016754 12.28630934601086 0 0 0
372 1 7.020656654270097 12.286354517037323 12.286354517037323 0 0 0
373 1 10.531098077561943 10.531111823304835 10.531111823304833 0 0 0
374 1 12.286318571740292 12.286309346010858 10.531123041016752 0 0 0
375 1 12.286318571740294 10.531123041016752 12.28630934601086 0 0 0
376 1 10.531098077561941 12.28630808830601 12.28630808830601 0 0 0
377 1 14.041524152427307 10.531128786398199 10.531128786398199 0 0 0
378 1 15.796711928360782 12.286351447859825 10.531175251486594 0 0 0
379 1 15.796711928360782 10.531175251486594 12.286351447859825 0 0 0
380 1 14.041539500853787 12.286354517037323 12.286354517037323 0 0 0
381 1 3.486156953465853e-05 14.041502093773762 10.531151405792233 0 0 0
382 1 1.7551830129269903 15.796645401354464 10.531055025983607 0 0 0
383 1 1.7551830129269912 14.041702002726657 12.286520319858 0 0 0
384 1 0.00010272447056914156 15.796696668481239 12.286317277687973 0 0 0
385 1 3.510331164284444 14.041502093773762 10.531151405792233 0 0 0
388 1 3.5102633013834104 15.796696668481239 12.286317277687973 0 0 0
386 1 5.265505006469223 15.796659963153301 10.531128743651701 0 0 0
387 1 5.265452171515555 14.041605198414889 12.286443435960042 0 0 0
389 1 7.0206705369860885 14.041501029796157 10.531151230968064 0 0 0
390 1 8.775869441804394 15.796665445659086 10.531150122315118 0 0 0
391 1 8.775858153815696 14.041500956435215 12.286332633266742 0 0 0
392 1 7.0205977177451295 15.796683866672998 12.286399921084653 0 0 0
393 1 10.531098077561943 14.041488044806938 10.531125378758674 0 0 0
394 1 12.286326713319493 15.796665445659086 10.531150122315118 0 0 0
395 1 12.286338001308192 14.041500956435215 12.286332633266742 0 0 0
396 1 10.531098077561943 15.79666175752456 12.286321037004752 0 0 0
397 1 14.041525618137795 14.041501029796157 10.531151230968064 0 0 0
398 1 15.796691148654666 15.796659963153301 10.531128743651701 0 0 0
399 1 15.796743983608334 14.041605198414889 12.286443435960042 0 0 0
400 1 14.041598437378756 15.796683866672998 12.286399921084653 0 0 0
401 1 0.0002568827341913894 3.251588163797012e-16 14.041550304653388 0 0 0
402 1 1.7551830129269907 1.7546617998252187 14.042135828617718 0 0 0
403 1 1.7551830129269907 2.40040852894378e-16 15.802209472976761 0 0 0
404 1 0.0001701680111818147 1.7522642539414632 15.799565875328442 0 0 0
405 1 3.5101091431197875 5.342669712034941e-19 14.041550304653388 0 0 0
408 1 3.5101958578427976 1.752264253941463 15.799565875328442 0 0 0
421 1 0.00011227285259329203 3.509945534628513 14.041884594641392 0 0 0
423 1 1.7551830129269907 3.5096943006521863 15.797168329444688 0 0 0
425 1 3.5102537530013853 3.5099455346285127 14.041884594641392 0 0 0
406 1 5.265267587905565 1.7549240817921237 14.041842458450104 0 0 0
407 1 5.263323704103532 4.4308707097816515e-17 15.799138232992094 0 0 0
409 1 7.020573114152915 4.2291884198545013e-16 14.0416494709889 0 0 0
410 1 8.775857355625224 1.7551747788122347 14.041512600660385 0 0 0
412 1 7.020589244354163 1.7549995125145093 15.796830616755397 0 0 0
427 1 5.265267587905565 3.5099876708198035 15.796906047477782 0 0 0
429 1 7.020602690326378 3.5102464397686814 14.041583689501223 0 0 0
431 1 8.775857355625226 3.5103175286095216 15.796655350457671 0 0 0
411 1 8.77606007727988 9.715655602615872e-17 15.796604216000325 0 0 0
413 1 10.531098077561943 1.633143776630999e-16 14.041418355023984 0 0 0
414 1 12.286338799498662 1.7551747788122365 14.041512600660385 0 0 0
415 1 12.286136077844008 3.933126789827568e-16 15.796604216000327 0 0 0
416 1 10.531098077561943 1.7552191153849583 15.796611013884949 0 0 0
433 1 10.531098077561943 3.5103527718870984 14.041477357382808 0 0 0
435 1 12.286338799498662 3.510317528609522 15.79665535045767 0 0 0
417 1 14.04162304097097 5.537437681301418e-16 14.0416494709889 0 0 0
418 1 15.796928567218323 1.754924081792123 14.041842458450104 0 0 0
419 1 15.798872451020355 1.5499072438392258e-16 15.799138232992092 0 0 0
420 1 14.041606910769723 1.7549995125145095 15.796830616755397 0 0 0
437 1 14.041593464797504 3.510246439768681 14.041583689501223 0 0 0
439 1 15.796928567218323 3.509987670819803 15.796906047477783 0 0 0
422 1 1.755183012926991 5.265309809411906 14.041702002726657 0 0 0
424 1 0.00010272447056872812 5.265512851581932 15.796696668481239 0 0 0
428 1 3.510263301383411 5.265512851581933 15.796696668481239 0 0 0
441 1 3.486156953444843e-05 7.020678723477671 14.041502093773762 0 0 0
442 1 1.7551830129269916 8.775915064634953 14.041465142435994 0 0 0
443 1 1.755183012926991 7.020775103286297 15.796645401354464 0 0 0
445 1 3.5103311642844446 7.020678723477672 14.041502093773762 0 0 0
448 1 3.5103675182149425 8.775915064634953 15.796640174725491 0 0 0
426 1 5.2654521715155544 5.265386693309864 14.041605198414889 0 0 0
430 1 8.775858153815696 5.265497496003165 14.041500956435213 0 0 0
432 1 7.020597717745129 5.265430208185253 15.796683866672998 0 0 0
446 1 5.265510298685115 8.775915064634953 14.041481603429741 0 0 0
447 1 5.265505006469223 7.020701385618203 15.796659963153301 0 0 0
449 1 7.020670536986088 7.02067889830184 14.041501029796155 0 0 0
450 1 8.77588311546575 8.775915064634953 14.041488467614133 0 0 0
451 1 8.775869441804394 7.020680006954787 15.796665445659086 0 0 0
452 1 7.02070202617138 8.775915064634953 15.796656812872534 0 0 0
434 1 12.286338001308192 5.265497496003164 14.041500956435215 0 0 0
436 1 10.531098077561943 5.265509092265153 15.79666175752456 0 0 0
453 1 10.531098077561943 7.020704750511231 14.041488044806938 0 0 0
454 1 12.286313039658138 8.775915064634953 14.041488467614132 0 0 0
455 1 12.286326713319493 7.020680006954787 15.796665445659086 0 0 0
456 1 10.531098077561943 8.775915064634953 15.796662597372414 0 0 0
444 1 17.55182863690894 8.775915064634953 15.796640174725491 -1 0 0
438 1 15.796743983608334 5.265386693309865 14.041605198414887 0 0 0
440 1 14.041598437378756 5.265430208185253 15.796683866672998 0 0 0
457 1 14.041525618137795 7.020678898301841 14.041501029796157 0 0 0
458 1 15.796685856438772 8.775915064634953 14.041481603429741 0 0 0
459 1 15.796691148654666 7.020701385618203 15.796659963153301 0 0 0
460 1 14.041494128952506 8.775915064634953 15.796656812872534 0 0 0
461 1 3.486156953439601e-05 10.531151405792235 14.041502093773762 0 0 0
462 1 1.755183012926991 12.286520319858 14.041702002726657 0 0 0
463 1 1.755183012926991 10.531055025983607 15.796645401354462 0 0 0
464 1 0.0001027244705686087 12.286317277687974 15.796696668481239 0 0 0
465 1 3.5103311642844446 10.531151405792233 14.041502093773762 0 0 0
468 1 3.5102633013834104 12.286317277687974 15.796696668481239 0 0 0
466 1 5.2654521715155544 12.286443435960043 14.041605198414889 0 0 0
467 1 5.265505006469222 10.531128743651703 15.796659963153301 0 0 0
469 1 7.020670536986088 10.531151230968064 14.041501029796157 0 0 0
470 1 8.775858153815696 12.286332633266742 14.041500956435215 0 0 0
471 1 8.775869441804394 10.531150122315118 15.796665445659086 0 0 0
472 1 7.020597717745129 12.286399921084653 15.796683866672998 0 0 0
473 1 10.531098077561943 10.531125378758674 14.041488044806938 0 0 0
474 1 12.286338001308192 12.286332633266742 14.041500956435215 0 0 0
475 1 12.286326713319493 10.531150122315118 15.796665445659086 0 0 0
476 1 10.531098077561943 12.286321037004752 15.79666175752456 0 0 0
477 1 14.041525618137797 10.531151230968064 14.041501029796155 0 0 0
478 1 15.796743983608334 12.286443435960042 14.041605198414887 0 0 0
479 1 15.796691148654666 10.531128743651703 15.796659963153301 0 0 0
480 1 14.041598437378754 12.286399921084652 15.796683866672998 0 0 0
481 1 0.00011227285259343136 14.041884594641392 14.041884594641392 0 0 0
482 1 1.755183012926991 15.797168329444688 14.042135828617718 0 0 0
483 1 1.755183012926991 14.042135828617718 15.797168329444688 0 0 0
484 1 0.00017016801118125262 15.799565875328442 15.799565875328442 0 0 0
485 1 3.5102537530013853 14.041884594641393 14.041884594641392 0 0 0
488 1 3.5101958578427976 15.799565875328442 15.799565875328442 0 0 0
486 1 5.265267587905565 15.796906047477782 14.041842458450102 0 0 0
487 1 5.265267587905565 14.041842458450102 15.796906047477782 0 0 0
489 1 7.020602690326378 14.041583689501225 14.041583689501223 0 0 0
490 1 8.775857355625226 15.796655350457671 14.041512600660385 0 0 0
491 1 8.775857355625226 14.041512600660385 15.796655350457671 0 0 0
492 1 7.020589244354163 15.796830616755397 15.796830616755397 0 0 0
493 1 10.531098077561943 14.041477357382808 14.041477357382808 0 0 0
494 1 12.286338799498662 15.79665535045767 14.041512600660385 0 0 0
495 1 12.286338799498663 14.041512600660385 15.79665535045767 0 0 0
496 1 10.531098077561943 15.796611013884949 15.796611013884949 0 0 0
497 1 14.041593464797504 14.041583689501223 14.041583689501223 0 0 0
498 1 15.796928567218323 15.796906047477782 14.041842458450102 0 0 0
499 1 15.796928567218323 14.041842458450104 15.796906047477783 0 0 0
500 1 14.04160691076972 15.796830616755397 15.796830616755397 0 0 0

Velocities

2 -3.8627974820642005e-15 -5.339666699042371e-09 2.4876166740086875e-16
3 -4.978611687409551e-15 -3.309618405685361e-16 -5.33966743425046e-09
4 -1.515918851367776e-09 -2.915382386839963e-09 -2.915382178806806e-09
5 -1.9107235653865587e-08 -4.815810724821555e-16 6.058958273475781e-17
8 1.5159272564687688e-09 -2.9153833747019566e-09 -2.915381920759996e-09
21 -9.475979222091878e-09 -4.910421458689199e-09 4.988067739997223e-16
23 -3.9526299816470884e-15 1.8532282070080645e-09 -1.7706971094847528e-09
25 9.475989472452884e-09 -4.910421473464281e-09 -6.335555233740549e-16
101 -9.47597979772908e-09 2.830905743434443e-16 -4.910422196261301e-09
102 -4.529449189495109e-15 -1.7706962602130296e-09 1.8532276467369486e-09
105 9.475992013767016e-09 6.62339230323054e-18 -4.910421773102948e-09
121 5.80624642990633e-09 2.546849119846537e-09 2.546849266415352e-09
125 -5.806239512877738e-09 2.546849744502382e-09 2.546848437847213e-09
6 -1.3746831266110048e-09 2.8907739206865984e-09 3.4071436787732097e-16
7 -1.3746829479802615e-09 -7.895832761375482e-16 2.8907728406304003e-09
9 -4.856769067756205e-09 -4.160663138575883e-16 9.609713442222138e-16
12 2.572595474030833e-10 -8.207259285914298e-10 -8.207260225609524e-10
27 -1.437131023240017e-09 -8.061268714700522e-10 -4.992245117678362e-09
29 1.9402189809226788e-10 2.503562925196084e-09 -1.789701085825518e-16
31 2.314140790239565e-09 2.2313664589741664e-09 2.21837378529579e-09
106 -1.437131902802967e-09 -4.992245613151509e-09 -8.061275705900026e-10
109 1.9402222679196257e-10 -8.297686145682584e-16 2.5035621739200932e-09
110 2.3141402578564172e-09 2.2183747648315824e-09 2.231366841205542e-09
129 3.5822462876033177e-09 -1.3080404926239502e-09 -1.308040300529413e-09
10 -2.2201376286705493e-09 -4.096950388580004e-09 6.1464341819871e-16
11 -2.2201380426775862e-09 5.673631552603477e-17 -4.096950924693861e-09
13 5.142813639643631e-16 -7.564842070137969e-17 6.099153919048738e-16
14 2.2201311350634915e-09 -4.096941275719362e-09 3.478608407984586e-16
15 2.2201304403529796e-09 7.955989284476188e-16 -4.096942193250008e-09
16 2.6411936883942645e-15 3.551459078226917e-09 3.5514589245660624e-09
33 9.089319124524889e-15 -3.826378670289563e-09 4.3059206651423747e-16
35 -2.3141478613514873e-09 2.231365324838859e-09 2.2183668507083237e-09
113 1.0167401463783101e-14 -9.976135479994446e-16 -3.826378976577017e-09
114 -2.3141478169639085e-09 2.2183665144256996e-09 2.2313650749922195e-09
133 1.0315731509205048e-15 8.244700053332558e-10 8.24470238920379e-10
1 1.9107243164233576e-08 -2.702637736182011e-16 -1.7447408170288932e-16
17 4.856784763325992e-09 1.0058875940136581e-15 1.3049352570987997e-15
18 1.3746746756426162e-09 2.890767566249271e-09 3.569659851846354e-16
19 1.3746741555597237e-09 1.6075289399043183e-16 2.890767272225136e-09
20 -2.572546529028797e-10 -8.207271880194338e-10 -8.207279894198906e-10
37 -1.940199080644425e-10 2.503561692049257e-09 -3.6671753941567265e-16
39 1.4371234980309505e-09 -8.061244660081825e-10 -4.9922404112513924e-09
117 -1.9401893061888165e-10 2.050781404951465e-16 2.5035639209258087e-09
118 1.437123160272572e-09 -4.992240516339164e-09 -8.061234205649231e-10
137 -3.5822328425986654e-09 -1.3080390808833178e-09 -1.3080385645634543e-09
22 -3.503467483732647e-15 2.5380815825418847e-09 -3.585912442231416e-16
24 1.0011320198746209e-09 4.43865590768905e-10 -8.57680965774412e-10
28 -1.0011242818685876e-09 4.4386502695176947e-10 -8.576802734740854e-10
41 2.9149680604397817e-09 2.499288399844477e-09 -7.38754108411911e-19
42 -3.1961457746332917e-15 3.150047518268389e-16 1.1229062447861048e-16
43 -4.456164781940648e-15 -5.8495200407670515e-12 2.523714344058776e-09
45 -2.914964030388369e-09 2.4992899860972983e-09 -4.207943401514245e-16
48 3.6725835092087205e-09 8.091850782226316e-16 -7.902677160730512e-11
122 -4.274135769627952e-15 3.253032190219074e-10 -4.622774073772595e-09
141 -1.4223931190558188e-09 5.67792025069409e-10 -1.4223053846179038e-09
142 -4.817858793419119e-15 -4.739846359570822e-16 8.92985752517504e-09
145 1.4224026457332992e-09 5.677900079751913e-10 -1.4223046788122287e-09
26 -4.352671456410932e-09 -7.2952200518425555e-09 -1.6075289399043183e-16
30 -5.548948999229794e-09 -4.827833066176801e-10 -5.153548660281491e-16
32 -5.468050657432375e-10 1.7510479680011788e-09 8.138129158662915e-10
46 2.3868633403284244e-09 7.367225346137782e-16 -7.612122333076331e-16
47 2.3596109959719743e-09 1.1716755621277913e-09 1.0834750311485302e-09
49 -1.4690586331846288e-09 -2.401394049767731e-09 -1.1347263105206954e-16
50 5.6880698748936905e-09 -2.411385754120029e-16 -8.132205225398317e-16
51 -1.8577841132913655e-11 -2.2831337768110074e-09 -1.962530751669653e-09
52 1.2669814359814715e-09 3.6150932295136866e-16 -8.951619273262022e-10
126 4.439244487505473e-09 6.239008213074556e-09 1.8908247154462233e-09
130 4.440531374048703e-09 2.240182957867883e-09 -4.297231605945223e-09
146 -1.0301831406109992e-09 5.647844417006724e-16 -3.808840280950598e-09
149 -1.5973936746400118e-09 1.2960166229565678e-09 2.6983921478054065e-10
150 -2.8548627380846066e-09 4.2233648935273437e-16 6.290231855507234e-09
34 5.548939263591097e-09 -4.827860689231788e-10 1.1388356302487366e-17
36 1.6181669990654499e-15 -2.4362672929117604e-10 -5.702849856774389e-09
53 2.8031701438767533e-15 -5.3951432394607676e-09 -7.233880229569433e-16
54 -5.6880756876918e-09 -1.5820650092299953e-16 -4.586185505021144e-16
55 1.857224979856873e-11 -2.2831323288529553e-09 -1.9625303119632075e-09
56 2.9013711879483836e-15 3.8608444008900865e-16 1.7067027381487015e-09
134 -4.440536897266462e-09 2.2401841499489477e-09 -4.297227773232103e-09
153 2.612085925268097e-15 6.354978088642757e-10 -1.443063604728432e-09
154 2.85485531485246e-09 3.601287762112739e-16 6.290230116424656e-09
44 -3.6725724905434428e-09 -1.2276800462116241e-15 -7.902558605471194e-11
38 4.352665326624113e-09 -7.2952158366893755e-09 3.7824210350689845e-17
40 5.468120815432543e-10 1.7510492965274373e-09 8.138129737846137e-10
57 1.469069165055967e-09 -2.4013932986752747e-09 4.544815274950077e-16
58 -2.3868746067348924e-09 -1.6607238529231537e-15 2.1808021280319615e-16
59 -2.359618373193587e-09 1.1716755066704439e-09 1.0834717664907783e-09
60 -1.2669730332445637e-09 8.515064542082789e-17 -8.95164627029216e-10
138 -4.439255253578175e-09 6.239003887288331e-09 1.8908225161937114e-09
157 1.5974028704365004e-09 1.296015314821582e-09 2.698406622283911e-10
158 1.0301740915034208e-09 -7.606674021526793e-16 -3.8088387772224654e-09
61 2.9149746796765927e-09 -2.4992861256638294e-09 -5.90707785086164e-16
62 -5.4939665534377e-15 -2.5380850215900103e-09 2.988999122634592e-16
63 -5.817836354565482e-15 5.852220925787406e-12 2.5237138035862702e-09
64 1.0011333862742197e-09 -4.438677774810659e-10 -8.576820709505582e-10
65 -2.9149636326431575e-09 -2.4992911553973013e-09 -1.0357332599934992e-15
68 -1.0011235915767487e-09 -4.4386597728505454e-10 -8.576798320269507e-10
161 -1.4223914937967804e-09 -5.677899092776425e-10 -1.4223056162911922e-09
162 -4.888779187826662e-15 -3.253068019793332e-10 -4.622771794863922e-09
165 1.4224019261867978e-09 -5.67789188844636e-10 -1.4223049206803237e-09
66 -4.3526712030142896e-09 7.295220710679629e-09 6.664485500510953e-16
67 2.359609139912301e-09 -1.1716774601833275e-09 1.0834746387236921e-09
69 -1.4690587624008023e-09 2.4013943994650684e-09 -8.41588680302849e-16
70 -5.548948698280775e-09 4.827840187073824e-10 -5.344470425174195e-16
71 -1.8578727063577862e-11 2.2831319358357694e-09 -1.9625295412949217e-09
72 -5.468055833503172e-10 -1.7510492719015308e-09 8.138125234401092e-10
166 4.439244431705952e-09 -6.239007652611826e-09 1.890823647651035e-09
169 -1.5973934524604916e-09 -1.2960163416505463e-09 2.698386233340015e-10
170 4.440531447346743e-09 -2.240181187865869e-09 -4.2972302824487694e-09
73 3.2819466290402208e-15 5.395144904335495e-09 -5.815472341418564e-16
74 5.548938607300416e-09 4.827856180515268e-10 -1.1576507739473524e-16
75 1.8571908968012144e-11 2.283132336535998e-09 -1.96253041125176e-09
76 3.0034787031594655e-15 2.4362746499085365e-10 -5.702849710205574e-09
173 3.065522505233122e-15 -6.354990006501067e-10 -1.4430641586462626e-09
174 -4.440538963718006e-09 -2.2401864460105683e-09 -4.297227230415452e-09
77 1.4690687088014296e-09 2.401392562876183e-09 9.154640911440401e-16
78 4.352662839682282e-09 7.2952198874259025e-09 -1.394767756681688e-16
79 -2.359620090058135e-09 -1.1716735758627062e-09 1.0834741520755451e-09
80 5.468164449205202e-10 -1.751049948612757e-09 8.138130612531001e-10
177 1.5974021588685433e-09 -1.296015844360527e-09 2.6983934404623847e-10
178 -4.4392550012197716e-09 -6.239002957049158e-09 1.8908210167768182e-09
81 -9.475980350908156e-09 4.9104234530297905e-09 1.304639755455435e-15
82 -4.47744090026291e-15 5.339666210282653e-09 2.27684016212551e-16
83 -4.685474057191704e-15 -1.8532256033430848e-09 -1.7706975480091915e-09
84 -1.5159175523425516e-09 2.9153825286807518e-09 -2.91538367197661e-09
85 9.475990420957753e-09 4.910424231028624e-09 6.619144467107172e-16
88 1.515927376331623e-09 2.9153824824762994e-09 -2.9153825762103442e-09
181 5.806247036608142e-09 -2.5468487197373117e-09 2.5468509945089626e-09
182 -4.562545373551962e-15 1.7706947330605368e-09 1.85322798863235e-09
185 -5.8062392623108134e-09 -2.5468485160505395e-09 2.5468492180200323e-09
86 -1.3746835247348284e-09 -2.8907717428694985e-09 -2.127611832226304e-17
87 -1.4371316882990746e-09 8.06123972561993e-10 -4.99224551622697e-09
89 1.9402250099901877e-10 -2.5035620811325775e-09 -1.0106156203074943e-15
91 2.3141419531335457e-09 -2.2313662747288915e-09 2.2183723742232877e-09
92 2.572599088359336e-10 8.207288720832994e-10 -8.207259102703279e-10
186 -1.4371318240086732e-09 4.992245102420782e-09 -8.061262146483916e-10
189 3.582246341175192e-09 1.308041947985704e-09 -1.3080395127405007e-09
190 2.3141395276686136e-09 -2.2183742232925004e-09 2.231367093448515e-09
90 -2.2201369761798346e-09 4.096948438269158e-09 1.0531678569520204e-15
93 6.4658714584644105e-15 3.8263802245543315e-09 1.8321101888615393e-16
94 2.220125885546055e-09 4.096941824172753e-09 3.896858663675167e-16
95 -2.3141519997527327e-09 -2.231365111163468e-09 2.2183672761518697e-09
96 4.052509537104379e-15 -3.5514603471109734e-09 3.551457759107581e-09
193 1.6516902753412293e-15 -8.244706139881485e-10 8.244704924677149e-10
194 -2.3141514154051337e-09 -2.218366579701551e-09 2.2313644173810158e-09
97 -1.9401749123037683e-10 -2.50356483816291e-09 -5.84502250575504e-16
98 1.3746739357065012e-09 -2.89076794537788e-09 4.846226951182136e-16
99 1.4371218772044366e-09 8.061247195901475e-10 -4.9922404968360555e-09
100 -2.572491234761291e-10 8.207255420752803e-10 -8.207252660767454e-10
197 -3.582230911958428e-09 1.3080420479045056e-09 -1.3080397809636487e-09
198 1.4371213677596034e-09 4.992239058925059e-09 -8.06124977563082e-10
103 -4.652377873134851e-15 4.574365439286553e-16 2.538084584838581e-09
104 1.00113266525021e-09 -8.576805479350883e-10 4.438652976312748e-10
108 -1.0011238143849878e-09 -8.576818809915454e-10 4.438673099974661e-10
123 -6.538860364375507e-15 -4.6227745049094935e-09 3.253024811543039e-10
201 2.9149738428159388e-09 1.2647470336011916e-16 2.4992892745293414e-09
202 -3.9904541919977784e-15 2.5237121616313886e-09 -5.850652403064426e-12
203 -5.077900239580111e-15 7.954904239379458e-16 -7.357990919782634e-16
205 -2.9149644364076274e-09 3.9242618238840714e-16 2.499288367339296e-09
208 3.6725835943131937e-09 -7.902463749443674e-11 -1.6709694489641914e-16
221 -1.4223940764811433e-09 -1.4223034603112024e-09 5.677921907719554e-10
223 -2.8793680129462646e-15 8.929857012184187e-09 -3.5341996546425824e-16
225 1.4224037210637795e-09 -1.4223049716543572e-09 5.67792715213497e-10
107 -4.352674496238646e-09 -7.564842070137969e-17 -7.295220873353284e-09
111 -5.548949517082573e-09 1.985771043411217e-16 -4.82781839779843e-10
112 -5.46802675153097e-10 8.13814386282469e-10 1.7510497303210361e-09
127 4.439246661424877e-09 1.8908250209210473e-09 6.2390081652055986e-09
131 4.440531182511401e-09 -4.297232406883958e-09 2.240182445553452e-09
206 2.359610739370352e-09 1.083475451941534e-09 1.1716763502837723e-09
207 2.3868664704572847e-09 3.9478788692873645e-16 -2.316732883979753e-16
209 -1.46905824183772e-09 7.919444042175686e-16 -2.4013919760099192e-09
210 -1.857842475067933e-11 -1.9625311204557036e-09 -2.283135103022383e-09
211 5.688071078599723e-09 -4.0897427441683397e-16 6.465575956821045e-16
212 1.2669788458293433e-09 -8.951634781188266e-10 -3.7558258871661556e-16
227 -1.03018376442882e-09 -3.80884285013423e-09 -9.908585651206533e-16
229 -1.5973940918990282e-09 2.698377449553666e-10 1.2960150857570191e-09
231 -2.8548627540234378e-09 6.290232225475292e-09 -3.25093362619839e-16
115 5.5489376278325155e-09 1.863253291744279e-16 -4.827866807431712e-10
116 2.028311737022799e-15 -5.702849492716364e-09 -2.436249166449936e-10
135 -4.4405372805136245e-09 -4.297228015873228e-09 2.2401842685351423e-09
213 2.8965071082614207e-15 1.2529269678666012e-16 -5.395143928312036e-09
214 1.857309124151824e-11 -1.9625299431771565e-09 -2.2831310676519413e-09
215 -5.688076899731614e-09 3.5932999833155353e-16 -5.910032867295289e-16
216 2.980858975802528e-15 1.7067002086546344e-09 2.499943902865907e-16
233 2.3210675958987572e-15 -1.4430642047445189e-09 6.354962379844654e-10
235 2.854858486792721e-09 6.290226515811008e-09 3.0794503287832755e-17
204 -3.6725722624161743e-09 -7.902697845845548e-11 -4.4029744861349895e-16
119 4.352663057171492e-09 2.0803315692879415e-16 -7.29521966402666e-09
120 5.468157445816254e-10 8.138140517746086e-10 1.7510489466534917e-09
139 -4.439255186203801e-09 1.890819855266054e-09 6.239003236002709e-09
217 1.4690683423793919e-09 4.278863795921789e-16 -2.4013934044648632e-09
218 -2.359618948239785e-09 1.0834745190885862e-09 1.1716750564736903e-09
219 -2.386871277761129e-09 -9.490404653713614e-16 2.706795053221242e-16
220 -1.2669783538157163e-09 -8.951617192930453e-10 -3.3155284385526566e-16
237 1.5973986565830661e-09 2.698370704187576e-10 1.2960171398397314e-09
124 -8.702851994919734e-11 -3.135087459458945e-10 -3.1350789091188943e-10
128 8.704254624867014e-11 -3.135067193684441e-10 -3.135083461806518e-10
143 -3.262338142746999e-15 4.052753708339282e-09 1.1934865085280893e-09
144 3.929357951847021e-09 2.316732883979753e-16 1.8885635178298093e-09
148 -3.929350259939244e-09 1.5058117336023535e-16 1.8885643836496243e-09
222 -4.307231953684806e-15 1.1934851786229434e-09 4.052753775122653e-09
224 3.929353082349315e-09 1.8885651017186178e-09 -1.4810542365441993e-15
228 -3.929352288853528e-09 1.8885645053963015e-09 -9.997328488479513e-16
241 1.4661756484243364e-09 -1.6670769340638604e-09 -1.6670746355043275e-09
242 -3.1677776168702744e-15 1.9975911091458073e-16 -7.164997468516721e-09
243 -3.2245139323963095e-15 -7.164998699248745e-09 4.077922678433749e-17
244 -1.144875522384402e-08 8.675928249189483e-16 -4.633465767959506e-16
245 -1.46616525803249e-09 -1.6670763649196603e-09 -1.6670765492099076e-09
248 1.1448762210149279e-08 -3.4885354163163714e-17 1.0666108731185283e-15
132 -3.196232092702694e-10 1.9899418180596544e-09 1.98994264863859e-09
147 -3.2295074398644567e-09 -4.978885466591451e-09 -1.0266457356269449e-09
151 -4.4715301513812814e-10 3.578260805039526e-09 1.0832811627041227e-09
152 -2.21948821504608e-09 -1.1242914087393772e-16 1.0420687374041117e-09
226 -3.229507802163323e-09 -1.0266471513799355e-09 -4.978885799461962e-09
230 -4.471523562594991e-10 1.0832818744752372e-09 3.5782624794353987e-09
232 -2.2194872351412162e-09 1.042070703071809e-09 4.874253435170013e-16
246 1.9211639627152227e-09 2.149774455478661e-16 5.033713982273354e-09
247 1.9211627519295597e-09 5.033714414563317e-09 1.0979732936272028e-17
249 -9.21756728901105e-10 -1.3520111516916143e-09 -1.3520108857401352e-09
250 1.1270996982645367e-09 -4.361604256063923e-16 -6.269181455690472e-09
251 1.1270998484855673e-09 -6.2691822883765225e-09 -1.3375143132797649e-15
252 2.903302092922043e-09 -2.321419355354991e-16 -4.584707996804319e-16
136 3.713100505027471e-15 1.0393212582987214e-09 1.039322675935535e-09
155 4.471480742421466e-10 3.578256598443121e-09 1.083281402826911e-09
156 1.452759954192023e-16 -2.1199241722856423e-16 7.174751754087916e-10
234 4.4714684658980366e-10 1.0832821132751942e-09 3.578256589490019e-09
236 1.5315988691991067e-16 7.174798214587742e-10 -2.677609648725794e-15
253 2.511172965313768e-15 -8.446961306682231e-10 -8.446934126441074e-10
254 -1.127105134312768e-09 1.869047894282135e-16 -6.269171913351405e-09
255 -1.1271067595948925e-09 -6.26917565956063e-09 -1.212955753388339e-15
256 8.428822769586895e-15 2.5002209356565614e-17 -5.563880395372532e-16
140 3.196258136178165e-10 1.9899438380742594e-09 1.989940388979078e-09
159 3.2294946646035114e-09 -4.978879869187233e-09 -1.026648759352128e-09
160 2.2194984311065955e-09 -4.2812185746423517e-16 1.0420698627805655e-09
238 3.2295010687151268e-09 -1.0266463858829283e-09 -4.97887624190456e-09
240 2.2195009372560327e-09 1.042068677523474e-09 3.039234402006602e-16
257 9.217639805114331e-10 -1.3520111345525188e-09 -1.3520136746846451e-09
258 -1.921171522533765e-09 2.1107359180622693e-15 5.0337129525978774e-09
259 -1.9211711052854445e-09 5.03370967858742e-09 -2.1719370787310183e-16
260 -2.9033008395495155e-09 1.9992833177753884e-15 -1.5414889398254712e-15
163 -3.796605113950493e-15 -4.052751527537154e-09 1.1934841985917432e-09
164 -8.702798331821298e-11 3.135083976972078e-10 -3.1350974086299e-10
168 8.704081423966296e-11 3.1350692220671316e-10 -3.135097663938703e-10
261 1.4661726106674425e-09 1.6670737776630568e-09 -1.6670741782155344e-09
262 -4.732754320130067e-15 -1.1934869166158589e-09 4.052754853112648e-09
263 -4.297775901097134e-15 7.164999986781726e-09 -2.216262325235733e-16
264 3.92935882291199e-09 -1.8885645178073702e-09 -5.673631552603477e-17
265 -1.4661652971125824e-09 1.66707451939185e-09 -1.6670757909526909e-09
268 -3.929351710815375e-09 -1.8885643785845414e-09 5.182683275431987e-16
167 -3.2295067940017517e-09 4.978883877162706e-09 -1.026646342014786e-09
171 -4.47153781029907e-10 -3.578260839327679e-09 1.0832816074387131e-09
172 -3.1962213422470597e-10 -1.989943998776364e-09 1.9899436001838936e-09
266 -3.229506845329002e-09 1.026644975896837e-09 -4.9788867099025254e-09
267 1.9211629050525086e-09 -5.0337137993327775e-09 6.564938384402447e-16
269 -9.217570820348472e-10 1.352013591944185e-09 -1.3520130535401909e-09
270 -4.4715287974066033e-10 -1.0832846713982917e-09 3.5782639430550383e-09
271 1.1270994767352655e-09 6.269185095776034e-09 -3.8465079539737177e-16
272 -2.219486735130347e-09 -1.0420709463296853e-09 2.0820630242295318e-15
175 4.4714707349351085e-10 -3.578254127658601e-09 1.0832791344200889e-09
176 7.737704456941328e-15 -1.0393226986199032e-09 1.039320101582933e-09
273 1.07858099828139e-15 8.446963209712814e-10 -8.446934386482521e-10
274 4.4714662411862113e-10 -1.0832792761292872e-09 3.5782557812996486e-09
275 -1.1271023234549642e-09 6.269171601585627e-09 -1.4502343385838899e-15
276 -1.0682499837965672e-15 -7.174775917811361e-10 -3.3680446212343884e-15
179 3.229496477801595e-09 4.9788808468544194e-09 -1.026645430821617e-09
180 3.196263071055609e-10 -1.989944117618814e-09 1.989943200677215e-09
277 9.217637795703157e-10 1.3520095087024771e-09 -1.3520109625705625e-09
278 3.2294962904535533e-09 1.0266482119353336e-09 -4.97888090994402e-09
279 -1.921171597000179e-09 -5.033713259476334e-09 -7.972634337981344e-16
280 2.2195003920555007e-09 -1.0420702206330556e-09 4.851305885677469e-16
183 -5.5412468163760626e-15 4.622775458788798e-09 3.25302454559156e-10
184 1.001132648702118e-09 8.576798866024104e-10 4.438672172099501e-10
188 -1.001124342150923e-09 8.576801558067161e-10 4.4386549798138897e-10
281 -1.422393306994864e-09 1.42230632076711e-09 5.677917295677656e-10
282 -4.607461623343407e-15 -2.52371502991809e-09 -5.850846252142473e-12
283 -3.508195510026483e-15 -8.92985884311237e-09 -6.10801896834968e-16
285 1.422402374167289e-09 1.4223068544430779e-09 5.67790623061862e-10
288 3.672582908749381e-09 7.902590304948265e-11 -5.806099398668087e-16
187 4.4392468134290714e-09 -1.8908220549156462e-09 6.2390083245410085e-09
191 4.440530810003021e-09 4.297231142561709e-09 2.240181024035603e-09
192 -5.468031768690299e-10 -8.138137704570442e-10 1.751046951130894e-09
286 2.3596096020029957e-09 -1.0834746842349664e-09 1.1716763295986572e-09
287 -1.030182392290025e-09 3.808840759217699e-09 5.733008914067084e-16
289 -1.5973959483439793e-09 -2.6983633866304576e-10 1.2960154773474859e-09
290 -1.8577842138167536e-11 1.962531089428031e-09 -2.2831331677821208e-09
291 -2.8548619991842043e-09 -6.290233419272704e-09 -1.0274592139792859e-15
292 1.266980071965449e-09 8.951634155071073e-10 -9.83374062559805e-16
195 -4.440537748652868e-09 4.297227012676913e-09 2.240186310728531e-09
196 2.6323170960603776e-15 5.702850161732085e-09 -2.4362607101264043e-10
293 3.303992577850283e-15 1.4430648236357733e-09 6.354988042361667e-10
294 1.8571832373495606e-11 1.962529426640284e-09 -2.2831299935034676e-09
295 2.8548566189465376e-09 -6.290228804842921e-09 -1.74686719917716e-15
296 3.051397637071467e-15 -1.7066996092180077e-09 -3.253796298368486e-16
284 -3.6725736518649012e-09 7.902586264425014e-11 -1.4284549440252711e-15
199 -4.4392548209637696e-09 -1.890820218963936e-09 6.239003868376226e-09
200 5.468165010658325e-10 -8.138139495310401e-10 1.7510475811403976e-09
297 1.597398846295121e-09 -2.698382366701011e-10 1.2960159418760691e-09
298 -2.359619076487498e-09 -1.0834739230617715e-09 1.1716752550507946e-09
299 1.0301738315520103e-09 3.808839208219609e-09 -4.544815274950077e-16
300 -1.266973625481873e-09 8.951619025040641e-10 -9.282537716459214e-16
301 2.9149674883486e-09 1.9325807476055593e-16 -2.499287406958955e-09
302 -3.2245139323963095e-15 2.5237141877384063e-09 5.8484266846866025e-12
303 -1.6311690713734995e-15 9.485602752008938e-17 -2.538083658736431e-09
304 1.0011307267594294e-09 -8.576805177939207e-10 -4.4386647963784825e-10
305 -2.9149648217417702e-09 -3.547497228593997e-16 -2.4992865189765168e-09
308 -1.0011246979349014e-09 -8.576822008535423e-10 -4.438660582525048e-10
321 -1.4223934961159157e-09 -1.4223048172547485e-09 -5.677887249070559e-10
323 -4.6665619520163595e-15 -4.622772748152223e-09 -3.2530548537176116e-10
325 1.4224006909899283e-09 -1.4223055673856702e-09 -5.677897980212738e-10
306 2.359610895422923e-09 1.0834747663790617e-09 -1.1716786664210357e-09
307 -4.352671227988162e-09 -2.340373015448934e-16 7.295220292854157e-09
309 -1.4690588818942794e-09 -5.697271684072658e-16 2.4013942165033792e-09
310 -1.857817333447596e-11 -1.962529319077686e-09 2.2831329641814883e-09
311 -5.548949602985824e-09 -6.831997994593353e-16 4.827852150734888e-10
312 -5.468039607841004e-10 8.138119702610329e-10 -1.7510494954000434e-09
327 4.439245113322957e-09 1.8908265087902907e-09 -6.239007860079374e-09
329 -1.5973924524525038e-09 2.698390617106894e-10 -1.296015203366673e-09
331 4.4405318497259165e-09 -4.297233189243028e-09 -2.2401856200511547e-09
313 1.9822250236908395e-15 -1.0354377583501344e-15 5.395139474068015e-09
314 1.8573472937730068e-11 -1.9625278344774297e-09 2.2831316822953594e-09
315 5.548944513602575e-09 -2.5171430219523716e-16 4.827870445594592e-10
316 1.6029478399828051e-15 -5.702846651172561e-09 2.436274669624037e-10
333 2.9497366503790878e-15 -1.4430671590221983e-09 -6.35494372540306e-10
335 -4.440538762988356e-09 -4.297227448606478e-09 -2.2401880875914555e-09
239 1.030174644994159e-09 -3.80883665508541e-09 -5.453778329940092e-15
317 1.4690684463959702e-09 1.8321101888615393e-16 2.4013950190858427e-09
318 -2.359617643304528e-09 1.0834714795586826e-09 -1.1716717699044128e-09
319 4.3526648727335884e-09 5.200828923219854e-17 7.29521444221712e-09
320 5.468116684319568e-10 8.138120589115258e-10 -1.7510493559467324e-09
337 1.5973966749490455e-09 2.6983883446992566e-10 -1.29601525690326e-09
339 -4.439253890133592e-09 1.8908213811718993e-09 -6.239006687757405e-09
322 -4.01409432346696e-15 1.1934864792734267e-09 -4.052751510398058e-09
324 -8.702870670623595e-11 -3.1350816720592596e-10 3.1350661050326876e-10
328 8.704185926275587e-11 -3.135088210614239e-10 3.135079747027656e-10
341 1.4661757666249937e-09 -1.6670772735952488e-09 1.6670754788660176e-09
342 -3.068489064699714e-15 6.004593393172013e-16 7.1650007267178405e-09
343 -4.420704584736876e-15 4.0527541563197726e-09 -1.1934869169113604e-09
344 3.929358659573457e-09 1.4231359144447055e-15 -1.8885628819102727e-09
345 -1.4661655120161526e-09 -1.6670741510492635e-09 1.6670741327244417e-09
348 -3.929352364298791e-09 5.7742867998746e-16 -1.888565398522315e-09
326 -3.2295048579326997e-09 -1.0266453551731964e-09 4.978887695105004e-09
330 -4.471582724979009e-10 1.0832811162180205e-09 -3.5782615217145727e-09
332 -3.1962507507875844e-10 1.989944041584856e-09 -1.989945800565314e-09
346 1.921162472057183e-09 6.360672873426554e-16 -5.0337140732878594e-09
347 -3.2295066056979465e-09 -4.978886221088658e-09 1.0266481280913594e-09
349 -9.217560751189786e-10 -1.3520142426388038e-09 1.352013070088283e-09
350 1.1271007811303087e-09 4.278863795921789e-16 6.26918447808128e-09
351 -4.4715694421570537e-10 3.578264685249262e-09 -1.0832804862962437e-09
352 -2.219487159810618e-09 -1.079536761409148e-15 -1.0420690481841136e-09
334 4.471516684240176e-10 1.0832808318392435e-09 -3.578253502420987e-09
336 9.767253573912914e-15 1.039320143089371e-09 -1.0393183436690514e-09
353 3.3793567935194457e-15 -8.446917584259079e-10 8.446946791641509e-10
354 -1.1271073910264979e-09 7.285593017158267e-16 6.269176177091519e-09
355 4.4714725610429204e-10 3.5782539815526293e-09 -1.0832839312451677e-09
356 2.1422945701309906e-16 9.77602546087837e-17 -7.174803208911806e-10
338 3.2295003453271035e-09 -1.0266448043581332e-09 4.978881314929022e-09
340 3.1962441294002694e-10 1.9899442795537144e-09 -1.9899444550816907e-09
357 9.217632523953839e-10 -1.3520134625144654e-09 1.3520138608506806e-09
358 -1.921172911391489e-09 5.252218505886258e-16 -5.033712133024069e-09
359 3.2294976060268695e-09 -4.978881106895866e-09 1.0266460509318156e-09
360 2.2195005173481974e-09 -6.429377005508862e-16 -1.0420705196807188e-09
361 1.4661759864782164e-09 1.667074801724002e-09 1.6670749376547579e-09
362 -3.262338142746999e-15 -1.1934863217710507e-09 -4.0527529627886356e-09
363 -4.042462481229977e-15 -4.052756655081669e-09 -1.1934871069189172e-09
364 -8.70342819357413e-11 3.1350827004049787e-10 3.1350653012682177e-10
365 -1.4661656041018521e-09 1.6670747532769953e-09 1.667074588978979e-09
368 8.704287252865655e-11 3.135097085078687e-10 3.135086412459685e-10
366 -3.2295061277149523e-09 1.0266461532815802e-09 4.978883693343257e-09
367 -3.2295066215003586e-09 4.978884084873412e-09 1.0266467139774796e-09
369 -9.217557628292462e-10 1.3520141403952352e-09 1.352009730919713e-09
370 -4.471576152333217e-10 -1.0832834049982958e-09 -3.5782611001260718e-09
371 -4.471529271063417e-10 -3.578261053203941e-09 -1.08328319545531e-09
372 -3.1962304359481835e-10 -1.9899428450502215e-09 -1.9899429507243794e-09
373 9.526972982080005e-16 8.446904854048283e-10 8.446974036893028e-10
374 4.471509720605434e-10 -1.083279394862397e-09 -3.578253360984204e-09
375 4.471465201482148e-10 -3.5782543534657195e-09 -1.083283893517922e-09
376 7.755760030742715e-15 -1.0393226515843527e-09 -1.0393214598862488e-09
377 9.2176264750352e-10 1.3520135417089057e-09 1.3520130316730692e-09
378 3.2294985274009935e-09 1.0266469436053426e-09 4.978883430720789e-09
379 3.229499832336251e-09 4.978882764069082e-09 1.0266449302418332e-09
380 3.196283383838574e-10 -1.989943414324903e-09 -1.9899456577733793e-09
381 -1.4223935977684812e-09 1.4223060016253352e-09 -5.677894884833024e-10
382 -1.8912105175344923e-15 -2.523715888350364e-09 5.852457327102097e-12
383 -4.30250392739097e-15 4.622775743061379e-09 -3.2530587085365493e-10
384 1.0011318594172284e-09 8.576801797400407e-10 -4.438670824612007e-10
385 1.4224019034331711e-09 1.4223068384859892e-09 -5.677893544733071e-10
388 -1.0011251447333863e-09 8.576806538562672e-10 -4.4386856351543725e-10
386 2.359609302535166e-09 -1.0834735276415304e-09 -1.1716737252965022e-09
387 4.4392431964660866e-09 -1.890825359510524e-09 -6.239009475224407e-09
389 -1.5973945648125716e-09 -2.6984070639896095e-10 -1.2960161058794813e-09
390 -1.857754471576349e-11 1.9625312268362953e-09 2.283132771514417e-09
391 4.440531708459093e-09 4.2972310634411435e-09 -2.2401846838234556e-09
392 -5.468050145545036e-10 -8.138105329410395e-10 -1.7510498019460607e-09
393 3.1137008161345227e-15 1.4430651196176066e-09 -6.354939255040347e-10
394 1.8571853501863105e-11 1.962530319055247e-09 2.283132743146259e-09
395 -4.4405390998664535e-09 4.297228270022554e-09 -2.2401872761254457e-09
396 1.9454673895841694e-15 5.702848157344438e-09 2.436269689313215e-10
397 1.5974013964743032e-09 -2.698412504913618e-10 -1.296015665286531e-09
398 -2.3596180918760226e-09 -1.0834719195606294e-09 -1.1716736758900125e-09
399 -4.439254537282192e-09 -1.890825337052399e-09 -6.239008470186381e-09
400 5.468108368903324e-10 -8.138115825628768e-10 -1.7510489216317672e-09
401 -9.475981334337624e-09 -6.501036154024817e-17 4.910424565888979e-09
402 -3.508195510026483e-15 -1.7706966260440641e-09 -1.853226026501438e-09
403 -3.683132482898424e-15 -3.1441374854010934e-16 5.339666062531831e-09
404 -1.5159198915335606e-09 -2.915383677591141e-09 2.9153823998420352e-09
405 9.47599004254943e-09 5.34266971203494e-16 4.910423662251879e-09
408 1.5159268641533996e-09 -2.915382718185032e-09 2.9153824925233555e-09
421 5.806247854556691e-09 2.5468494508083775e-09 -2.5468478793306382e-09
423 -3.1488655116949294e-15 1.8532290388451906e-09 1.7706953305648597e-09
425 -5.806240871889796e-09 2.546851007861943e-09 -2.546848148148685e-09
406 -1.4371312693928859e-09 -4.992246577668872e-09 8.061254092909831e-10
407 -1.3746836553465547e-09 -1.0472578240847251e-15 -2.8907750654899768e-09
409 1.9402149291363128e-10 -7.753963121891418e-16 -2.503564928438662e-09
410 2.314145497611261e-09 2.218372958725538e-09 -2.2313655856190595e-09
412 2.5725930040497577e-10 -8.207252950359064e-10 8.20726133078567e-10
427 -1.4371307262249377e-09 -8.061271165332587e-10 4.992246113509666e-09
429 3.582246330672574e-09 -1.3080404276135885e-09 1.308043378804661e-09
431 2.314139538217571e-09 2.2313675519793385e-09 -2.218374425561067e-09
411 -2.2201366125604455e-09 7.753963121891418e-16 4.096948795235143e-09
413 3.598914514539466e-15 8.250405882744223e-16 3.826379863525199e-09
414 -2.314146896125381e-09 2.2183662318570577e-09 -2.2313651127956524e-09
415 2.220130735143572e-09 8.168750467698818e-16 4.096941464843933e-09
416 1.8526475530753903e-15 3.5514583832070515e-09 -3.551460789181432e-09
433 -6.678798861361433e-17 8.244694006630181e-10 -8.244709848958088e-10
435 -2.3141466498339957e-09 2.23136511957603e-09 -2.2183661504207732e-09
417 -1.940209542141354e-10 -3.770600969334394e-16 -2.5035648192508047e-09
418 1.4371233783527848e-09 -4.992241853779602e-09 8.061251072883036e-10
419 1.3746787228331237e-09 -1.453868085354641e-15 -2.8907693614217547e-09
420 -2.5725518716985093e-10 -8.207248506014348e-10 8.207257767035851e-10
437 -3.582232347542349e-09 -1.3080393162503767e-09 1.3080430251284404e-09
439 1.4371228299017348e-09 -8.061251796862062e-10 4.992239063542272e-09
422 -4.085014717874503e-15 3.253025718733084e-10 4.622775689871083e-09
424 1.0011323342883693e-09 4.438675954520536e-10 8.576798357761278e-10
428 -1.0011262398624765e-09 4.438654388810603e-10 8.576797290838742e-10
441 -1.4223929334807869e-09 5.677919541490146e-10 1.4223063775034256e-09
442 -5.912396880442206e-15 -4.538905242082782e-16 -8.929860531017756e-09
443 -3.936081889618662e-15 -5.850856890201634e-12 -2.5237157994043695e-09
445 1.4224019956296839e-09 5.677894119483767e-10 1.4223066916216725e-09
448 3.67258427514898e-09 -1.1972433769450533e-16 7.902767095732228e-11
426 4.439244413839142e-09 6.2390079176352455e-09 -1.890826712908051e-09
430 4.440531571421875e-09 2.240182851861018e-09 4.297235085809513e-09
432 -5.46802094042578e-10 1.7510466345978445e-09 -8.138125688226975e-10
446 -1.0301807236337998e-09 -2.7200926271726565e-16 3.808840070110175e-09
447 2.3596086429662635e-09 1.1716766439593078e-09 -1.083473690315185e-09
449 -1.5973930732708945e-09 1.2960185700676854e-09 -2.6983845563681886e-10
450 -2.854863824329327e-09 -1.4057013174861844e-15 -6.290233594405124e-09
451 -1.8578284060875188e-11 -2.2831331264118905e-09 1.962530018086823e-09
452 1.2669814648591937e-09 -2.2077666529889961e-16 8.951622208562955e-10
434 -4.4405383641550885e-09 2.240186224786033e-09 4.297227646417125e-09
436 1.879981455086631e-15 -2.436249387750078e-10 5.702848905416082e-09
453 2.2203993482428396e-15 6.354957960294372e-10 1.4430651540066104e-09
454 2.854857959286585e-09 3.1530025347020363e-16 -6.290227053282325e-09
455 1.8572064342285647e-11 -2.283132033942315e-09 1.9625304000226974e-09
456 2.7936725363704828e-15 -5.977767384610305e-16 -1.706699911269168e-09
444 -3.672573870536117e-09 -2.0324972407682703e-17 7.902494067912283e-11
438 -4.439255175565741e-09 6.239004423919316e-09 -1.8908196492367677e-09
440 5.46811823274818e-10 1.7510468423862891e-09 -8.13813586655022e-10
457 1.597402319030434e-09 1.2960163780364947e-09 -2.69840106900002e-10
458 1.0301750312886823e-09 -4.541675569989326e-16 3.808839151483293e-09
459 -2.359616778075716e-09 1.1716745168876895e-09 -1.0834725172127033e-09
460 -1.2669767111100329e-09 9.764390083670882e-16 8.951623132513485e-10
461 -1.4223931556980225e-09 -5.677928146498e-10 1.4223063136750705e-09
462 -3.219785906102473e-15 -3.25304197871101e-10 4.622775906178286e-09
463 -4.501081031732092e-15 5.85376699038549e-12 -2.5237121907383007e-09
464 1.0011323366523824e-09 -4.438701698623706e-10 8.576804161413554e-10
465 1.422401988833146e-09 -5.677877939291284e-10 1.4223066437504062e-09
468 -1.0011255743927757e-09 -4.438698394915333e-10 8.576788921285674e-10
466 4.439244826259282e-09 -6.2390107265168815e-09 -1.8908264267401037e-09
467 2.3596098017621063e-09 -1.1716766549413493e-09 -1.0834736886899298e-09
469 -1.5973943347012e-09 -1.296015461390397e-09 -2.698401098550184e-10
470 4.44053067730236e-09 -2.2401846896457616e-09 4.297231315390924e-09
471 -1.8578166746722774e-11 2.2831327709234134e-09 1.962530729950282e-09
472 -5.468029785617878e-10 -1.751048522470117e-09 -8.138122493900383e-10
473 1.8569323269041796e-15 -6.35493752931075e-10 1.443064961339539e-09
474 -4.440538955550839e-09 -2.240187484952763e-09 4.297228289412541e-09
475 1.857242633179877e-11 2.283131057013882e-09 1.962529251998813e-09
476 3.252586588515962e-15 2.4362702413933946e-10 5.70284942520809e-09
477 1.5973984438218827e-09 -1.296015999203388e-09 -2.6983659604497717e-10
478 -4.439254776047519e-09 -6.239005051564806e-09 -1.8908204612752837e-09
479 -2.3596181385652823e-09 -1.171676045074438e-09 -1.0834743122374358e-09
480 5.468158090009837e-10 -1.7510457049422798e-09 -8.138133407976547e-10
481 5.8062478250065265e-09 -2.546847807228237e-09 -2.5468483499170053e-09
482 -4.326144058860151e-15 1.7706954475835104e-09 -1.8532254792323945e-09
483 -3.895893666121054e-15 -1.8532245253530898e-09 1.7706948949954373e-09
484 -1.5159192160168037e-09 2.9153829943913416e-09 2.9153817721965448e-09
485 -5.806240613602891e-09 -2.546851368104887e-09 -2.5468491686066167e-09
488 1.5159273441588816e-09 2.915382537070228e-09 2.9153828970904997e-09
486 -1.4371311317479896e-09 4.99224635781565e-09 8.061295291748948e-10
487 -1.4371305542782957e-09 8.061304931012555e-10 4.992246006759698e-09
489 3.582247101672118e-09 1.3080394290211915e-09 1.3080433531352645e-09
490 2.314142042441631e-09 -2.218372136048963e-09 -2.2313661506182016e-09
491 2.3141410904884524e-09 -2.2313661470721817e-09 -2.218372991230719e-09
492 2.5725890145192967e-10 8.207243293365359e-10 8.207254287504001e-10
493 1.441900268798368e-15 -8.244694227887036e-10 -8.244687899349967e-10
494 -2.3141466975528942e-09 -2.218366994249961e-09 -2.2313657292120804e-09
495 -2.3141510194398824e-09 -2.2313658667196146e-09 -2.2183668193130207e-09
496 3.403735679097039e-15 -3.5514606328610624e-09 -3.5514594994645096e-09
497 -3.582232334798841e-09 1.3080421401010184e-09 1.3080431991789082e-09
498 1.4371227377052222e-09 4.992243301442153e-09 8.061301591843984e-10
499 1.43712115854444e-09 8.061249512634358e-10 4.992239368610781e-09
500 -2.572495466344824e-10 8.207247424478334e-10 8.207235639872796e-10
