LAMMPS data file via write_data, version 29 Aug 2024, timestep = 26, units = metal

500 atoms
3 atom types

0 17.612813480873037 xlo xhi
0 17.612813480873037 ylo yhi
0 17.612813480873037 zlo zhi

Masses

1 55.2633
2 55.845
3 55.845

Atoms # atomic

1 2 0.0018268394119028688 0.0018268394119020331 6.700485036498448e-19 0 0 0
2 3 1.7594545086753994 1.759454508675399 7.44553916277264e-17 0 0 0
3 1 1.7590926320360847 0.002188716051217194 1.7567613216151106 0 0 0
4 1 0.0021887160512170903 1.7590926320360865 1.7567613216151103 0 0 0
5 1 3.5201915861744335 0.0021499730355239027 3.6101979891410114e-19 0 0 0
8 1 3.5209296632376335 1.7615610012971517 1.7595165521194769 0 0 0
21 1 0.002149973035522623 3.5201915861744344 5.169870936573391e-16 0 0 0
23 1 1.7615610012971519 3.5209296632376335 1.7595165521194787 0 0 0
25 1 3.5187967481812166 3.518796748181217 3.680394119959181e-17 0 0 0
102 1 1.7615037194588765 1.7615037194588772 3.522495104980401 0 0 0
125 1 3.522951528331884 3.5229515283318844 3.523069843385965 0 0 0
6 1 5.283530670684083 1.761213114332763 0 0 0 0
9 1 7.045221054107268 0.00010318977666866767 3.3921323387902124e-19 0 0 0
12 1 7.045115619025457 1.761294446807606 1.76119316315463 0 0 0
27 1 5.284040705493277 3.5227752854000847 1.761336162218117 0 0 0
29 1 7.04517833406998 3.522418567069072 6.941756536167113e-19 0 0 0
106 1 5.281967939608269 1.7610804141208476 3.520813089634735 0 0 0
109 1 7.044979895369521 0.00019674307337559521 3.522454729627144 0 0 0
129 1 7.044821423741973 3.522301004653565 3.5224536117394294 0 0 0
31 1 8.80637303155659 3.52255108897525 1.7612993333349976 0 0 0
10 1 8.80647756570658 1.7612811494665461 1.490115277397129e-18 0 0 0
13 1 10.567617263253759 1.9862075672868572e-07 6.105838209822382e-19 0 0 0
14 1 12.328873774853072 1.7611781583106343 0 0 0 0
16 1 10.567723214252311 1.7612852177506801 1.7612824166097745 0 0 0
33 1 10.567663483924315 3.5224999830995842 8.547661533012277e-17 0 0 0
35 1 12.329179260680636 3.522518903299943 1.7610852854070347 0 0 0
110 1 8.806432102741907 1.7612933733232614 3.5224848160630744 0 0 0
114 1 12.329114933590818 1.7610846050139286 3.522454729627145 0 0 0
133 1 10.567820130995006 3.5225067678893627 3.5224760138850257 0 0 0
121 1 17.612573752732885 3.5210330149143396 3.52112941963077 -1 0 0
17 1 14.090564158276258 6.823375454066818e-05 0 0 0 0
18 1 15.853903242785906 1.759131375051779 0 0 0 0
20 1 14.0898488061474 1.7615186272016674 1.7614296925312616 0 0 0
37 1 14.09194909420842 3.5207368040347164 6.086151727499046e-19 0 0 0
39 1 15.850956670859198 3.5231381581011427 1.7617277915990461 0 0 0
117 1 14.092126889352071 0.00020093396645614405 3.5208130896347347 0 0 0
118 1 15.853061814046 1.7615210762274542 3.52112941963077 0 0 0
137 1 14.09031124257981 3.522485703631782 3.5226279212444127 0 0 0
22 1 1.7612131143327636 5.283530670684082 0 0 0 0
28 1 3.522775285400085 5.284040705493277 1.7613361622181165 0 0 0
41 1 0.00010318977666819889 7.045221054107268 0 0 0 0
43 1 1.7612944468076077 7.045115619025458 1.7611931631546298 0 0 0
45 1 3.522418567069071 7.04517833406998 0 0 0 0
122 1 1.7610804141208476 5.2819679396082675 3.520813089634737 0 0 0
141 1 0.00019674307337371843 7.044979895369522 3.522454729627145 0 0 0
145 1 3.5223010046535657 7.044821423741974 3.522453611739428 0 0 0
48 1 3.522551088975249 8.806373031556587 1.7612993333349973 0 0 0
26 1 5.281614106372371 5.281614106372369 0 0 0 0
32 1 7.044862558338802 5.283728949204524 1.761007741480355 0 0 0
47 1 5.283728949204523 7.044862558338802 1.7610077414803558 0 0 0
49 1 7.04443726996772 7.0444372699677205 1.9383613364515497e-20 0 0 0
126 1 5.283973492682305 5.283973492682304 3.522646878278955 0 0 0
149 1 7.045100694354559 7.045100694354558 3.522440638845906 0 0 0
51 1 8.806316493534048 7.045006974094397 1.7611297401889663 0 0 0
130 1 8.806276986416728 5.283718274862366 3.522434489456377 0 0 0
52 1 7.045006974094397 8.806316493534048 1.7611297401889667 0 0 0
146 1 5.283718274862366 8.806276986416728 3.5224344894563773 0 0 0
50 1 8.806240865923787 8.806240865923785 1.6960661693951062e-19 0 0 0
150 1 8.806391040990272 8.806391040990274 3.522423244160048 0 0 0
30 1 8.806434081886584 5.283739193017283 0 0 0 0
34 1 12.329475784141987 5.2832542833 7.559616017819628e-19 0 0 0
36 1 10.567783112147678 5.283749955388695 1.7612126580685012 0 0 0
53 1 10.567859040713945 7.044907408648864 1.9044400130636477e-18 0 0 0
55 1 12.329143125492376 7.044951703467965 1.7611204111875103 0 0 0
134 1 12.329121742186922 5.2837575852991945 3.5224328096500703 0 0 0
153 1 10.567709343669232 7.0450457301346265 3.522429457888642 0 0 0
54 1 12.329187420311476 8.806235788246394 6.784264677580424e-20 0 0 0
56 1 10.567736098978175 8.806358729982165 1.7611358080332669 0 0 0
154 1 12.329049098825712 8.806385485291106 3.522429457888641 0 0 0
24 1 17.61257620175867 5.284246022812939 1.761429692531261 -1 0 0
38 1 15.853358024925626 5.282145734751918 3.9978702564313217e-19 0 0 0
40 1 14.09048699673741 5.2836078322229305 1.7608777986341986 0 0 0
57 1 14.090840545660337 7.044619044818353 0 0 0 0
59 1 15.851575925660395 7.044915568279704 1.7610852854070354 0 0 0
138 1 15.851609125328556 5.28378358638053 3.5226279212444114 0 0 0
157 1 14.090337243661144 7.0449730867734175 3.522432809650069 0 0 0
44 1 17.61280961120966 8.806371614708027 1.761282416609774 -1 0 0
60 1 14.090344873571643 8.806311716812658 1.7612126580685008 0 0 0
158 1 15.851588061070977 8.80627469796533 3.522476013885026 0 0 0
42 1 1.7612811494665468 8.806477565706578 1.0103708466253704e-18 0 0 0
61 1 1.9862075572835686e-07 10.56761726325376 2.0595089199797716e-19 0 0 0
62 1 1.7611781583106325 12.328873774853072 1.1787659877295988e-18 0 0 0
63 1 1.7612852177506793 10.567723214252313 1.7612824166097747 0 0 0
65 1 3.522499983099585 10.567663483924315 7.848778061561354e-17 0 0 0
68 1 3.522518903299944 12.329179260680636 1.7610852854070354 0 0 0
142 1 1.7612933733232612 8.806432102741908 3.522484816063073 0 0 0
162 1 1.7610846050139282 12.329114933590816 3.5224547296271447 0 0 0
165 1 3.522506767889362 10.567820130995008 3.5224760138850257 0 0 0
46 1 5.283739193017284 8.806434081886582 4.3163174457802734e-19 0 0 0
66 1 5.283254283300001 12.329475784141986 0 0 0 0
67 1 5.2837499553886955 10.56778311214768 1.7612126580685004 0 0 0
69 1 7.044907408648864 10.567859040713946 2.2291155369192825e-18 0 0 0
72 1 7.044951703467964 12.329143125492374 1.7611204111875112 0 0 0
166 1 5.283757585299195 12.329121742186922 3.52243280965007 0 0 0
169 1 7.045045730134627 10.567709343669234 3.5224294578886397 0 0 0
70 1 8.806235788246395 12.329187420311474 2.442335283928953e-18 0 0 0
71 1 8.806358729982165 10.567736098978175 1.7611358080332673 0 0 0
170 1 8.806385485291106 12.329049098825713 3.52242945788864 0 0 0
73 1 10.567853963036553 10.567853963036555 1.0688963489842271e-16 0 0 0
74 1 12.329657558992619 12.329657558992619 1.308393902104796e-19 0 0 0
75 1 12.329087854865941 10.567778335426292 1.7611297401889678 0 0 0
76 1 10.567778335426292 12.329087854865941 1.761129740188967 0 0 0
173 1 10.567703787970066 10.567703787970066 3.522423244160048 0 0 0
174 1 12.32899413460578 12.328994134605779 3.5224406388459046 0 0 0
64 1 17.612800382152734 12.328979209934882 1.76119316315463 -1 0 0
161 1 17.612801455637083 10.56766272621843 3.5224848160630735 -1 0 0
58 1 15.851594845860756 8.806431345036025 1.897099306212518e-15 0 0 0
77 1 14.090355635943057 10.567660747073758 6.5286598394820615e-19 0 0 0
78 1 15.851676261891267 12.32891649489036 7.356687009751273e-19 0 0 0
79 1 15.85154373998509 10.56772179740375 1.7612993333349958 0 0 0
80 1 14.090365879755817 12.329232270621537 1.7610077414803558 0 0 0
177 1 14.090376554097972 10.567817842543612 3.5224344894563773 0 0 0
178 1 15.851793824306771 12.329273405218368 3.522453611739429 0 0 0
105 1 3.5210330149143396 17.612573752732885 3.5211294196307708 0 -1 0
81 1 6.823375454021385e-05 14.090564158276257 6.299674343467537e-19 0 0 0
82 1 1.759131375051778 15.853903242785906 0 0 0 0
83 1 1.7615186272016676 14.0898488061474 1.7614296925312611 0 0 0
85 1 3.520736804034716 14.091949094208422 2.0228617759624844e-18 0 0 0
88 1 3.523138158101142 15.850956670859196 1.7617277915990464 0 0 0
181 1 0.0002009339664549255 14.092126889352071 3.5208130896347347 0 0 0
182 1 1.7615210762274531 15.853061814046002 3.5211294196307694 0 0 0
185 1 3.522485703631783 14.09031124257981 3.5226279212444114 0 0 0
7 1 5.28424602281294 17.612576201758674 1.7614296925312616 0 -1 0
11 1 8.806371614708029 17.61280961120966 1.7612824166097745 0 -1 0
87 1 5.2836078322229305 14.090486996737411 1.7608777986341988 0 0 0
89 1 7.0446190448183525 14.090840545660338 3.5435668182004897e-19 0 0 0
92 1 7.044915568279704 15.851575925660395 1.7610852854070342 0 0 0
186 1 5.283783586380529 15.851609125328556 3.5226279212444114 0 0 0
189 1 7.044973086773417 14.090337243661143 3.522432809650069 0 0 0
91 1 8.80631171681266 14.090344873571645 1.761212658068502 0 0 0
190 1 8.806274697965334 15.851588061070977 3.522476013885025 0 0 0
15 1 12.32897920993488 17.61280038215273 1.7611931631546298 0 -1 0
113 1 10.567662726218432 17.612801455637076 3.5224848160630735 0 -1 0
90 1 8.806431345036023 15.851594845860756 0 0 0 0
93 1 10.567660747073758 14.090355635943057 1.2440661915659288e-18 0 0 0
94 1 12.32891649489036 15.851676261891265 5.663649529944372e-19 0 0 0
95 1 12.329232270621537 14.090365879755817 1.761007741480355 0 0 0
96 1 10.56772179740375 15.851543739985091 1.7612993333349987 0 0 0
193 1 10.56781784254361 14.090376554097974 3.5224344894563777 0 0 0
194 1 12.329273405218364 15.851793824306773 3.522453611739429 0 0 0
101 1 17.612591109501466 17.612591109501462 3.5224951049804027 -1 -1 0
19 1 15.853165165722706 17.61253382766319 1.7595165521194773 0 -1 0
84 1 17.612533827663192 15.853165165722706 1.7595165521194776 -1 0 0
97 1 14.092480722587968 14.09248072258797 9.928044470137781e-19 0 0 0
98 1 15.855298080779122 15.855298080779122 1.5531120208318043e-18 0 0 0
99 1 15.851319543560253 14.09005412346706 1.7613361622181178 0 0 0
100 1 14.090054123467063 15.851319543560255 1.7613361622181167 0 0 0
197 1 14.090121336278036 14.090121336278035 3.5226468782789557 0 0 0
198 1 15.851143300628454 15.851143300628456 3.5230698433859646 0 0 0
103 1 1.7611766967768734 0.00010465131042820586 5.283865366515159 0 0 0
104 1 0.00010465131042908082 1.761176696776873 5.28386536651516 0 0 0
108 1 3.5224005183642526 1.7610745060662267 5.283656231153448 0 0 0
123 1 1.7610745060662263 3.5224005183642526 5.283656231153448 0 0 0
202 1 1.7612841155291108 1.7612841155291108 7.045150536581463 0 0 0
225 1 3.5224904497713796 3.522490449771379 7.0449431471946955 0 0 0
107 1 5.283243626007434 0.00019831769936014019 5.283112862862144 0 0 0
112 1 7.044506856165521 1.7611966501253953 5.283246046619153 0 0 0
127 1 5.283785313615646 3.522304116622404 5.283659400347428 0 0 0
206 1 5.2836956599901574 1.761195312473664 7.045043318998657 0 0 0
209 1 7.044867876384306 8.14534564037852e-05 7.044856028418336 0 0 0
229 1 7.04502961110459 3.522405843268229 7.045018288439249 0 0 0
111 1 8.806313636099715 8.037260876605637e-05 5.283721619991386 0 0 0
131 1 8.80631400714629 3.522414299530841 5.283714187165033 0 0 0
210 1 8.806237187204868 1.7612042753802988 7.044915002041884 0 0 0
115 1 12.329587972794817 8.469796190797832e-05 5.283246046619155 0 0 0
116 1 10.567781192860624 1.7612009754785365 5.283721619991386 0 0 0
135 1 12.32908586850465 3.5224171046716983 5.283750139129455 0 0 0
213 1 10.567857641755472 7.707270700587429e-05 7.044915002041884 0 0 0
214 1 12.32922695257603 1.7611998946308978 7.044856028418336 0 0 0
233 1 10.567712745231669 3.5224125312162418 7.045062282225062 0 0 0
216 1 10.56774334873097 1.7612052929087698 8.806406740436517 0 0 0
221 1 17.61281281317911 3.5224972362657314 7.045103096587399 -1 0 0
119 1 15.851694310596088 0.00020684202107700453 5.28365623115345 0 0 0
120 1 14.090851202952907 1.761083030387944 5.283112862862143 0 0 0
139 1 15.85179650745462 3.5222983215057173 5.283462195447752 0 0 0
217 1 14.090399168970182 8.603561363785845e-05 7.045043318998658 0 0 0
218 1 15.85159759269461 1.7612820157812266 7.045103096587398 0 0 0
237 1 14.090408728772262 3.5224048706260427 7.044888404911351 0 0 0
124 1 0.0001983176993609086 5.283243626007435 5.2831128628621435 0 0 0
128 1 3.5223041166224043 5.283785313615646 5.283659400347428 0 0 0
143 1 1.7611966501253946 7.04450685616552 5.283246046619153 0 0 0
222 1 1.7611953124736632 5.2836956599901574 7.0450433189986565 0 0 0
241 1 8.145345640604242e-05 7.0448678763843064 7.044856028418336 0 0 0
245 1 3.5224058432682295 7.04502961110459 7.045018288439248 0 0 0
144 1 8.03726087639094e-05 8.806313636099715 5.283721619991384 0 0 0
148 1 3.5224142995308427 8.80631400714629 5.2837141871650335 0 0 0
242 1 1.761204275380299 8.806237187204866 7.044915002041886 0 0 0
132 1 7.045102726278063 5.283747475667357 5.283802514453846 0 0 0
147 1 5.283747475667356 7.045102726278063 5.283802514453847 0 0 0
226 1 5.283733822059475 5.283733822059475 7.044983747429992 0 0 0
249 1 7.045067835074492 7.045067835074492 7.045098990101352 0 0 0
151 1 8.806396903989906 7.0450672768633495 5.283766240560406 0 0 0
230 1 8.806392585750144 5.283722349485452 7.045092843639567 0 0 0
152 1 7.0450672768633495 8.806396903989908 5.283766240560407 0 0 0
246 1 5.283722349485452 8.806392585750146 7.045092843639566 0 0 0
250 1 8.806388130102173 8.806388130102173 7.045088607746536 0 0 0
136 1 10.567706773071894 5.28373544463591 5.283748304293928 0 0 0
155 1 12.32902766112052 7.045067167839819 5.2837687074326265 0 0 0
234 1 12.32903571982777 5.283726036397926 7.045093256723969 0 0 0
253 1 10.567712679785641 7.04505474425723 7.045089681303269 0 0 0
156 1 10.567710097469735 8.806384731490605 5.283756418366615 0 0 0
254 1 12.329040084703108 8.806382149174699 7.045089681303268 0 0 0
236 1 10.567715612560253 5.283715851950059 8.806406740436517 0 0 0
140 1 14.090334564112178 5.283760264848161 5.283809532921756 0 0 0
159 1 15.851677724288642 7.045008960455691 5.283750139129455 0 0 0
238 1 15.851689958334298 5.283686100188077 7.044888404911353 0 0 0
257 1 14.090368792562414 7.045059109132569 7.045093256723969 0 0 0
160 1 14.09035938432443 8.806388055888446 5.283748304293928 0 0 0
258 1 15.851682297744098 8.80638208372867 7.04506228222506 0 0 0
163 1 1.7612009754785367 10.567781192860625 5.283721619991384 0 0 0
164 1 8.469796190935846e-05 12.329587972794817 5.283246046619155 0 0 0
168 1 3.5224171046716988 12.32908586850465 5.283750139129455 0 0 0
261 1 7.707270700387757e-05 10.567857641755472 7.0449150020418845 0 0 0
262 1 1.7611998946308969 12.329226952576034 7.0448560284183355 0 0 0
265 1 3.522412531216243 10.567712745231669 7.045062282225062 0 0 0
167 1 5.2837354446359095 10.567706773071894 5.283748304293929 0 0 0
172 1 7.045067167839819 12.32902766112052 5.283768707432626 0 0 0
266 1 5.283726036397925 12.32903571982777 7.045093256723967 0 0 0
269 1 7.045054744257231 10.56771267978564 7.045089681303268 0 0 0
171 1 8.806384731490605 10.567710097469734 5.283756418366615 0 0 0
270 1 8.806382149174699 12.329040084703108 7.045089681303267 0 0 0
175 1 12.329027552096989 10.567697924970432 5.283766240560407 0 0 0
176 1 10.567697924970432 12.329027552096989 5.283766240560408 0 0 0
273 1 10.567706698858167 10.567706698858167 7.045088607746534 0 0 0
274 1 12.329026993885847 12.329026993885847 7.045098990101353 0 0 0
179 1 15.851680529429496 10.567780821814049 5.283714187165034 0 0 0
180 1 14.090347353292985 12.328992102682276 5.283802514453846 0 0 0
277 1 14.090372479474887 10.567702243210194 7.045092843639567 0 0 0
278 1 15.85168898569211 12.32906521785575 7.045018288439247 0 0 0
205 1 3.5224972362657323 17.61281281317911 7.045103096587399 0 -1 0
183 1 1.761083030387943 14.090851202952905 5.283112862862145 0 0 0
184 1 0.0002068420210780819 15.85169431059609 5.283656231153448 0 0 0
188 1 3.5222983215057178 15.851796507454623 5.283462195447752 0 0 0
281 1 8.603561364198411e-05 14.09039916897018 7.045043318998658 0 0 0
282 1 1.7612820157812272 15.851597592694608 7.045103096587398 0 0 0
285 1 3.5224048706260414 14.09040872877226 7.044888404911352 0 0 0
283 1 1.7612897097274929 14.090333796817427 8.806406740436517 0 0 0
187 1 5.283760264848162 14.090334564112178 5.283809532921755 0 0 0
192 1 7.0450089604556885 15.851677724288642 5.283750139129457 0 0 0
286 1 5.2836861001880795 15.8516899583343 7.044888404911352 0 0 0
289 1 7.045059109132569 14.090368792562414 7.045093256723967 0 0 0
191 1 8.806388055888446 14.090359384324428 5.283748304293929 0 0 0
290 1 8.80638208372867 15.851682297744098 7.04506228222506 0 0 0
195 1 12.328992102682275 14.090347353292984 5.283802514453847 0 0 0
196 1 10.567780821814049 15.851680529429498 5.283714187165033 0 0 0
293 1 10.567702243210194 14.090372479474887 7.045092843639566 0 0 0
294 1 12.329065217855751 15.851688985692109 7.045018288439248 0 0 0
201 1 17.61281071343123 17.61281071343123 7.045150536581461 -1 -1 0
199 1 15.851790712337932 14.090309515344693 5.283659400347427 0 0 0
200 1 14.090309515344693 15.851790712337932 5.28365940034743 0 0 0
297 1 14.090361006900864 14.090361006900865 7.04498374742999 0 0 0
298 1 15.851604379188958 15.851604379188961 7.044943147194694 0 0 0
203 1 1.7612744536542588 6.894433043595227e-06 8.80640674043652 0 0 0
204 1 6.89443304344763e-06 1.7612744536542588 8.806406740436518 0 0 0
208 1 3.5225319212290653 1.761290636430601 8.806406740436518 0 0 0
223 1 1.7612906364306007 3.522531921229065 8.806406740436518 0 0 0
302 1 1.7612841155291108 1.7612841155291106 10.567662944291571 0 0 0
303 1 1.7611766967768745 0.00010465131042840641 12.328948114357878 0 0 0
304 1 0.0001046513104293019 1.7611766967768736 12.328948114357878 0 0 0
308 1 3.5224005183642526 1.7610745060662252 12.329157249719588 0 0 0
323 1 1.761074506066226 3.522400518364253 12.329157249719588 0 0 0
325 1 3.5224904497713796 3.522490449771379 10.567870333678341 0 0 0
212 1 7.0450166000865275 1.7612025578422326 8.806406740436518 0 0 0
227 1 5.2837526151005525 3.522499005742997 8.806406740436518 0 0 0
306 1 5.283695659990158 1.7611953124736635 10.56777016187438 0 0 0
307 1 5.283243626007434 0.0001983176993613592 12.329700618010893 0 0 0
309 1 7.0448678763843064 8.145345640441323e-05 10.567957452454698 0 0 0
312 1 7.04450685616552 1.761196650125395 12.329567434253883 0 0 0
327 1 5.283785313615647 3.5223041166224043 12.329154080525608 0 0 0
329 1 7.04502961110459 3.5224058432682295 10.567795192433788 0 0 0
211 1 8.806351480229369 7.605517853261697e-05 8.806406740436518 0 0 0
231 1 8.80636163492233 3.5224080961457784 8.806406740436518 0 0 0
310 1 8.806237187204868 1.761204275380299 10.567898478831152 0 0 0
311 1 8.806313636099715 8.037260876353978e-05 12.32909186088165 0 0 0
331 1 8.806314007146291 3.5224142995308427 12.329099293708003 0 0 0
215 1 12.329078228873813 7.879024507085167e-05 8.806406740436518 0 0 0
235 1 12.329089901970054 3.52241502312774 8.806406740436518 0 0 0
313 1 10.56785764175547 7.707270700360091e-05 10.567898478831152 0 0 0
314 1 12.329226952576033 1.7611998946308975 10.567957452454698 0 0 0
315 1 12.329587972794819 8.469796190766449e-05 12.329567434253883 0 0 0
316 1 10.567781192860625 1.7612009754785374 12.329091860881652 0 0 0
333 1 10.567712745231669 3.5224125312162426 10.567751198647974 0 0 0
335 1 12.32908586850465 3.522417104671699 12.329063341743582 0 0 0
321 1 17.61281281317911 3.522497236265732 10.567710384285638 -1 0 0
220 1 14.090333796817427 1.7612897097274927 8.806406740436518 0 0 0
239 1 15.851550301529313 3.522544527431026 8.806406740436518 0 0 0
317 1 14.090399168970182 8.603561364017634e-05 10.567770161874378 0 0 0
318 1 15.851597592694608 1.7612820157812275 10.567710384285638 0 0 0
319 1 15.851694310596088 0.00020684202107668285 12.329157249719588 0 0 0
320 1 14.090851202952907 1.7610830303879432 12.329700618010893 0 0 0
337 1 14.090408728772262 3.5224048706260427 10.567925075961686 0 0 0
339 1 15.85179650745462 3.5222983215057173 12.329351285425282 0 0 0
228 1 3.522499005742998 5.283752615100552 8.806406740436518 0 0 0
243 1 1.761202557842232 7.0450166000865275 8.806406740436518 0 0 0
322 1 1.7611953124736626 5.2836956599901574 10.56777016187438 0 0 0
324 1 0.00019831769936219404 5.283243626007433 12.329700618010893 0 0 0
328 1 3.5223041166224034 5.283785313615646 12.329154080525608 0 0 0
341 1 8.145345640501129e-05 7.044867876384306 10.5679574524547 0 0 0
343 1 1.7611966501253948 7.04450685616552 12.329567434253883 0 0 0
345 1 3.5224058432682295 7.04502961110459 10.567795192433788 0 0 0
244 1 7.605517853326867e-05 8.80635148022937 8.806406740436518 0 0 0
248 1 3.5224080961457775 8.80636163492233 8.806406740436518 0 0 0
342 1 1.7612042753802994 8.806237187204868 10.56789847883115 0 0 0
344 1 8.037260876334027e-05 8.806313636099715 12.329091860881652 0 0 0
348 1 3.5224142995308423 8.80631400714629 12.329099293708005 0 0 0
232 1 7.045043150944779 5.283726069670392 8.806406740436518 0 0 0
247 1 5.283726069670391 7.045043150944778 8.80640674043652 0 0 0
326 1 5.283733822059475 5.283733822059476 10.567829733443045 0 0 0
332 1 7.045102726278064 5.283747475667356 12.32901096641919 0 0 0
347 1 5.283747475667356 7.045102726278064 12.32901096641919 0 0 0
349 1 7.045067835074492 7.045067835074491 10.567714490771683 0 0 0
251 1 8.806389413002318 7.045053550411002 8.806406740436518 0 0 0
330 1 8.806392585750144 5.283722349485452 10.56772063723347 0 0 0
351 1 8.806396903989908 7.0450672768633495 12.329047240312631 0 0 0
252 1 7.045053550411003 8.806389413002318 8.806406740436518 0 0 0
346 1 5.283722349485452 8.806392585750144 10.56772063723347 0 0 0
352 1 7.0450672768633495 8.806396903989906 12.329047240312631 0 0 0
350 1 8.806388130102173 8.806388130102173 10.567724873126501 0 0 0
255 1 12.329044384534484 7.045050444425857 8.806406740436518 0 0 0
334 1 12.32903571982777 5.283726036397926 10.567720224149067 0 0 0
336 1 10.567706773071894 5.283735444635909 12.329065176579109 0 0 0
353 1 10.567712679785641 7.045054744257231 10.567723799569768 0 0 0
355 1 12.32902766112052 7.04506716783982 12.32904477344041 0 0 0
256 1 10.567713366009068 8.806381462951272 8.806406740436518 0 0 0
354 1 12.329040084703108 8.806382149174699 10.567723799569766 0 0 0
356 1 10.567710097469734 8.806384731490605 12.32905706250642 0 0 0
224 1 17.612805119232846 5.2837610321429125 8.806406740436518 -1 0 0
240 1 14.090389372486102 5.28370545647424 8.806406740436518 0 0 0
259 1 15.851679805832598 7.045004926990282 8.806406740436518 0 0 0
338 1 15.851689958334298 5.283686100188078 10.567925075961684 0 0 0
340 1 14.090334564112178 5.28376026484816 12.32900394795128 0 0 0
357 1 14.090368792562414 7.045059109132569 10.567720224149067 0 0 0
359 1 15.851677724288642 7.045008960455692 12.329063341743582 0 0 0
260 1 14.090378977010278 8.806379216400085 8.806406740436518 0 0 0
358 1 15.851682297744098 8.806382083728671 10.567751198647976 0 0 0
360 1 14.09035938432443 8.806388055888446 12.329065176579109 0 0 0
263 1 1.76120529290877 10.567743348730968 8.80640674043652 0 0 0
264 1 7.879024507063544e-05 12.329078228873813 8.806406740436518 0 0 0
268 1 3.5224150231277402 12.329089901970056 8.806406740436518 0 0 0
361 1 7.707270700518749e-05 10.567857641755472 10.567898478831154 0 0 0
362 1 1.7611998946308969 12.32922695257603 10.5679574524547 0 0 0
363 1 1.7612009754785376 10.567781192860625 12.32909186088165 0 0 0
364 1 8.469796190833897e-05 12.329587972794819 12.329567434253885 0 0 0
365 1 3.522412531216241 10.567712745231669 10.567751198647976 0 0 0
368 1 3.5224171046716983 12.329085868504649 12.329063341743582 0 0 0
267 1 5.283715851950059 10.567715612560253 8.806406740436518 0 0 0
272 1 7.045050444425857 12.329044384534482 8.80640674043652 0 0 0
366 1 5.283726036397926 12.329035719827772 10.567720224149067 0 0 0
367 1 5.2837354446359095 10.567706773071894 12.32906517657911 0 0 0
369 1 7.045054744257232 10.567712679785641 10.567723799569766 0 0 0
372 1 7.045067167839818 12.32902766112052 12.329044773440412 0 0 0
271 1 8.80638146295127 10.567713366009068 8.80640674043652 0 0 0
370 1 8.806382149174699 12.329040084703106 10.567723799569766 0 0 0
371 1 8.806384731490606 10.567710097469735 12.32905706250642 0 0 0
275 1 12.329041278549337 10.567705415958022 8.806406740436518 0 0 0
276 1 10.567705415958022 12.329041278549337 8.806406740436518 0 0 0
373 1 10.567706698858165 10.567706698858167 10.567724873126501 0 0 0
374 1 12.329026993885847 12.329026993885849 10.567714490771683 0 0 0
375 1 12.329027552096989 10.567697924970433 12.329047240312631 0 0 0
376 1 10.567697924970432 12.329027552096989 12.329047240312631 0 0 0
279 1 15.851686732814562 10.56773319403801 8.806406740436518 0 0 0
280 1 14.090368759289948 12.329051678015558 8.806406740436518 0 0 0
377 1 14.090372479474889 10.567702243210196 10.56772063723347 0 0 0
378 1 15.85168898569211 12.32906521785575 10.567795192433788 0 0 0
379 1 15.851680529429498 10.567780821814049 12.329099293708003 0 0 0
380 1 14.090347353292984 12.328992102682276 12.32901096641919 0 0 0
305 1 3.5224972362657305 17.612812813179115 10.567710384285638 0 -1 0
288 1 3.522544527431026 15.851550301529313 8.80640674043652 0 0 0
381 1 8.603561364030507e-05 14.09039916897018 10.567770161874378 0 0 0
382 1 1.7612820157812268 15.85159759269461 10.567710384285638 0 0 0
383 1 1.7610830303879417 14.090851202952907 12.329700618010893 0 0 0
384 1 0.00020684202107745225 15.851694310596086 12.329157249719588 0 0 0
385 1 3.522404870626044 14.090408728772262 10.567925075961684 0 0 0
388 1 3.522298321505717 15.851796507454623 12.329351285425284 0 0 0
207 1 5.283761032142913 17.612805119232846 8.806406740436518 0 -1 0
287 1 5.283705456474239 14.0903893724861 8.806406740436522 0 0 0
292 1 7.0450049269902815 15.8516798058326 8.806406740436518 0 0 0
386 1 5.283686100188079 15.851689958334298 10.567925075961682 0 0 0
387 1 5.283760264848163 14.090334564112178 12.32900394795128 0 0 0
389 1 7.045059109132566 14.090368792562412 10.567720224149067 0 0 0
392 1 7.045008960455691 15.851677724288642 12.329063341743582 0 0 0
291 1 8.806379216400085 14.09037897701028 8.806406740436518 0 0 0
390 1 8.806382083728671 15.8516822977441 10.567751198647976 0 0 0
391 1 8.806388055888446 14.090359384324431 12.329065176579112 0 0 0
295 1 12.32905167801556 14.090368759289948 8.806406740436518 0 0 0
296 1 10.567733194038007 15.85168673281456 8.80640674043652 0 0 0
393 1 10.567702243210196 14.090372479474889 10.567720637233469 0 0 0
394 1 12.32906521785575 15.851688985692109 10.567795192433788 0 0 0
395 1 12.328992102682276 14.090347353292984 12.32901096641919 0 0 0
396 1 10.567780821814049 15.851680529429498 12.329099293708005 0 0 0
301 1 17.61281071343123 17.61281071343123 10.567662944291573 -1 -1 0
219 1 15.851562907731271 17.61280419252974 8.806406740436518 0 -1 0
284 1 17.61280419252974 15.851562907731273 8.80640674043652 -1 0 0
299 1 15.851595823217343 14.090342213859786 8.806406740436518 0 0 0
300 1 14.090342213859786 15.851595823217343 8.806406740436518 0 0 0
397 1 14.090361006900864 14.090361006900864 10.567829733443046 0 0 0
398 1 15.85160437918896 15.85160437918896 10.567870333678341 0 0 0
399 1 15.851790712337934 14.090309515344693 12.329154080525608 0 0 0
400 1 14.090309515344693 15.851790712337934 12.329154080525608 0 0 0
402 1 1.7615037194588767 1.7615037194588763 14.090318375892636 0 0 0
403 1 1.7590926320360845 0.0021887160512183658 15.856052159257928 0 0 0
404 1 0.002188716051217397 1.759092632036085 15.856052159257926 0 0 0
408 1 3.5209296632376326 1.7615610012971519 15.853296928753558 0 0 0
423 1 1.7615610012971525 3.5209296632376335 15.853296928753558 0 0 0
425 1 3.5229515283318835 3.522951528331885 14.089743637487071 0 0 0
406 1 5.281967939608269 1.7610804141208476 14.092000391238297 0 0 0
409 1 7.044979895369521 0.0001967430733753126 14.090358751245892 0 0 0
412 1 7.0451156190254585 1.7612944468076068 15.851620317718405 0 0 0
427 1 5.284040705493278 3.5227752854000856 15.851477318654918 0 0 0
429 1 7.044821423741972 3.5223010046535648 14.090359869133607 0 0 0
431 1 8.80637303155659 3.522551088975249 15.851514147538039 0 0 0
410 1 8.806432102741908 1.7612933733232614 14.090328664809963 0 0 0
414 1 12.329114933590816 1.761084605013927 14.090358751245892 0 0 0
416 1 10.567723214252311 1.761285217750679 15.851531064263261 0 0 0
433 1 10.567820130995006 3.5225067678893627 14.09033746698801 0 0 0
435 1 12.329179260680638 3.522518903299944 15.851728195466 0 0 0
421 1 17.612573752732885 3.5210330149143387 14.091684061242265 -1 0 0
417 1 14.092126889352071 0.00020093396645354245 14.0920003912383 0 0 0
418 1 15.853061814046002 1.7615210762274536 14.091684061242265 0 0 0
420 1 14.0898488061474 1.7615186272016674 15.851383788341776 0 0 0
437 1 14.09031124257981 3.522485703631783 14.090185559628624 0 0 0
439 1 15.850956670859198 3.5231381581011427 15.85108568927399 0 0 0
422 1 1.761080414120848 5.2819679396082675 14.092000391238297 0 0 0
428 1 3.5227752854000847 5.284040705493276 15.851477318654918 0 0 0
441 1 0.00019674307337357402 7.044979895369523 14.090358751245892 0 0 0
443 1 1.7612944468076075 7.0451156190254585 15.851620317718407 0 0 0
445 1 3.522301004653565 7.044821423741974 14.090359869133607 0 0 0
448 1 3.522551088975249 8.806373031556587 15.851514147538039 0 0 0
426 1 5.283973492682305 5.283973492682304 14.090166602594081 0 0 0
432 1 7.044862558338801 5.283728949204523 15.851805739392681 0 0 0
447 1 5.283728949204524 7.044862558338802 15.851805739392681 0 0 0
449 1 7.045100694354558 7.04510069435456 14.09037284202713 0 0 0
430 1 8.80627698641673 5.283718274862366 14.090378991416658 0 0 0
451 1 8.80631649353405 7.045006974094398 15.85168374068407 0 0 0
446 1 5.283718274862367 8.806276986416728 14.090378991416658 0 0 0
452 1 7.045006974094397 8.806316493534048 15.85168374068407 0 0 0
450 1 8.806391040990274 8.806391040990272 14.090390236712988 0 0 0
434 1 12.329121742186922 5.2837575852991945 14.090380671222967 0 0 0
436 1 10.56778311214768 5.2837499553886955 15.851600822804537 0 0 0
453 1 10.567709343669232 7.045045730134628 14.090384022984395 0 0 0
455 1 12.329143125492376 7.044951703467965 15.851693069685526 0 0 0
454 1 12.329049098825715 8.806385485291106 14.090384022984395 0 0 0
456 1 10.567736098978175 8.806358729982163 15.85167767283977 0 0 0
424 1 17.61257620175867 5.284246022812939 15.851383788341776 -1 0 0
438 1 15.851609125328556 5.283783586380529 14.090185559628626 0 0 0
440 1 14.09048699673741 5.28360783222293 15.851935682238837 0 0 0
457 1 14.090337243661144 7.044973086773419 14.090380671222967 0 0 0
459 1 15.851575925660395 7.044915568279703 15.851728195466 0 0 0
444 1 17.612809611209663 8.806371614708027 15.851531064263261 -1 0 0
458 1 15.851588061070977 8.80627469796533 14.090337466988009 0 0 0
460 1 14.090344873571643 8.80631171681266 15.851600822804535 0 0 0
442 1 1.7612933733232612 8.806432102741907 14.090328664809963 0 0 0
462 1 1.7610846050139284 12.329114933590816 14.090358751245892 0 0 0
463 1 1.761285217750679 10.567723214252313 15.851531064263261 0 0 0
465 1 3.5225067678893627 10.567820130995008 14.09033746698801 0 0 0
468 1 3.5225189032999427 12.329179260680636 15.851728195466002 0 0 0
466 1 5.283757585299195 12.32912174218692 14.090380671222965 0 0 0
467 1 5.283749955388696 10.56778311214768 15.851600822804535 0 0 0
469 1 7.045045730134626 10.567709343669234 14.090384022984395 0 0 0
472 1 7.044951703467965 12.329143125492372 15.851693069685526 0 0 0
470 1 8.806385485291107 12.329049098825713 14.090384022984395 0 0 0
471 1 8.806358729982163 10.567736098978177 15.85167767283977 0 0 0
473 1 10.567703787970066 10.567703787970068 14.090390236712986 0 0 0
474 1 12.32899413460578 12.328994134605779 14.090372842027127 0 0 0
475 1 12.329087854865943 10.567778335426292 15.851683740684068 0 0 0
476 1 10.56777833542629 12.329087854865943 15.851683740684068 0 0 0
461 1 17.61280145563708 10.567662726218432 14.090328664809963 -1 0 0
464 1 17.612800382152734 12.32897920993488 15.851620317718407 -1 0 0
477 1 14.090376554097972 10.567817842543612 14.09037899141666 0 0 0
478 1 15.851793824306773 12.329273405218368 14.090359869133607 0 0 0
479 1 15.85154373998509 10.567721797403753 15.851514147538039 0 0 0
480 1 14.090365879755817 12.329232270621537 15.851805739392681 0 0 0
405 1 3.521033014914339 17.612573752732885 14.091684061242264 0 -1 0
481 1 0.00020093396645605408 14.092126889352071 14.0920003912383 0 0 0
482 1 1.761521076227454 15.853061814046 14.091684061242264 0 0 0
483 1 1.761518627201669 14.0898488061474 15.851383788341776 0 0 0
485 1 3.522485703631782 14.090311242579812 14.090185559628624 0 0 0
488 1 3.5231381581011445 15.850956670859196 15.85108568927399 0 0 0
86 1 5.28214573475192 15.853358024925624 17.612813480873033 0 0 -1
407 1 5.28424602281294 17.61257620175867 15.851383788341776 0 -1 0
411 1 8.806371614708029 17.612809611209663 15.851531064263263 0 -1 0
486 1 5.283783586380529 15.851609125328556 14.090185559628626 0 0 0
487 1 5.28360783222293 14.090486996737413 15.851935682238839 0 0 0
489 1 7.044973086773418 14.090337243661144 14.090380671222965 0 0 0
492 1 7.044915568279702 15.851575925660395 15.851728195466002 0 0 0
490 1 8.806274697965334 15.851588061070975 14.090337466988007 0 0 0
491 1 8.80631171681266 14.090344873571643 15.851600822804535 0 0 0
413 1 10.567662726218432 17.61280145563708 14.090328664809961 0 -1 0
415 1 12.32897920993488 17.61280038215273 15.851620317718405 0 -1 0
493 1 10.56781784254361 14.090376554097972 14.090378991416658 0 0 0
494 1 12.329273405218368 15.851793824306775 14.090359869133607 0 0 0
495 1 12.329232270621537 14.090365879755817 15.851805739392683 0 0 0
496 1 10.56772179740375 15.851543739985091 15.851514147538039 0 0 0
401 1 17.612591109501462 17.612591109501462 14.090318375892634 -1 -1 0
419 1 15.853165165722706 17.61253382766319 15.853296928753558 0 -1 0
484 1 17.61253382766319 15.853165165722706 15.85329692875356 -1 0 0
497 1 14.090121336278035 14.090121336278036 14.090166602594081 0 0 0
498 1 15.851143300628454 15.851143300628456 14.089743637487071 0 0 0
499 1 15.851319543560253 14.090054123467063 15.85147731865492 0 0 0
500 1 14.09005412346706 15.851319543560253 15.851477318654918 0 0 0

Velocities

1 -4.350588295639055e-10 -4.3505618248830733e-10 6.700485036498447e-16
2 4.350560817843444e-10 4.3505983990039123e-10 4.67142006821913e-16
3 5.220272141496452e-09 -5.220267684476855e-09 2.364235386239531e-10
4 -5.2202698190972765e-09 5.220265884223763e-09 2.364250481228439e-10
5 -4.339268904809477e-09 -9.422002735423147e-09 3.6101979891410115e-16
8 1.7797310455421158e-09 -1.3701764302544568e-09 9.835654191274126e-10
21 -9.421994426213262e-09 -4.3392725480959e-09 -1.058829880036659e-15
23 -1.370177163500206e-09 1.7797319111416e-09 9.835612207579054e-10
25 3.111509504479184e-09 3.111507165119346e-09 -5.018538647656591e-16
102 -1.3387518704282043e-09 -1.3387532393958981e-09 -7.3684877393327485e-09
125 -3.4267384949300893e-09 -3.4267406616546207e-09 1.5958571007818687e-11
6 3.3240831914152497e-09 -2.0699784456892473e-09 -2.764587856114023e-15
9 -1.5900772684454373e-09 8.088544272063309e-09 3.392132338790212e-16
12 1.8753020926993248e-09 -1.0264821435198119e-09 -6.278909938405e-10
27 3.766980442811299e-09 -2.5351237615914244e-09 1.5291035996388289e-09
29 -8.092597142563123e-10 3.3051352196123292e-09 6.941756536167113e-16
106 -1.2322872135740397e-09 -1.0954351225108965e-09 -3.2621781928847932e-09
109 4.540006143351266e-09 -5.406452240933289e-10 1.9267508428004055e-10
129 -7.26584169637232e-11 1.2236545007268484e-09 2.99483104894707e-09
31 2.778344094563792e-09 6.234995586983156e-11 2.5233729160238184e-09
10 1.5796314939965538e-09 -6.150742446034477e-09 1.4901152773971289e-15
13 -1.5796286669703688e-09 6.150741968712998e-09 6.105838209822382e-16
14 1.5900766149902786e-09 -8.088546554422439e-09 -9.315104541610657e-16
16 -6.645102965028676e-09 -3.643387787075295e-09 2.0745763090449087e-09
33 -6.329287478909778e-09 3.6116281618055545e-09 -8.023377305355018e-16
35 -7.45930566460775e-09 1.8236454248279044e-09 1.3155373112166977e-09
110 1.803038351709144e-09 -3.636985746658174e-09 3.660689832967822e-09
114 -4.540007013228775e-09 5.406385106999876e-10 1.9267224700363432e-10
133 -2.2472790244453905e-09 -8.940219237266046e-10 -1.465663258010887e-09
121 1.5091994602741134e-09 -2.3280370077015627e-09 -4.686285807622494e-09
17 -3.3240875621171946e-09 2.069974193409065e-09 -8.833173184001477e-16
18 4.339270519176744e-09 9.42199893290337e-09 -1.4053119689273736e-16
20 -6.134678828588747e-09 -1.4586004453537722e-09 -4.456731341865987e-09
37 -3.6952904132901675e-10 2.135946608917836e-09 6.086151727499045e-16
39 -1.4395198075617958e-09 1.4395167337447328e-09 -4.913329640004368e-09
117 1.2322836553985264e-09 1.095433638681333e-09 -3.2621743416687356e-09
118 2.328038825218185e-09 -1.509201815988875e-09 -4.68628771486996e-09
137 -3.2367595528709518e-09 1.683212400352712e-09 -4.0497309831486924e-09
22 -2.0699818765888126e-09 3.3240839501019913e-09 -3.1498371717337684e-16
28 -2.5351237203832537e-09 3.7669799592325e-09 1.5291049686452687e-09
41 8.088543676017197e-09 -1.5900795347878284e-09 -3.973640739725677e-16
43 -1.0264879928280137e-09 1.875295745905197e-09 -6.278879227492575e-10
45 3.305140966853692e-09 -8.092630776267477e-10 -6.753977781698369e-16
122 -1.0954364917069252e-09 -1.2322810816181144e-09 -3.2621838727549024e-09
141 -5.406360120310774e-10 4.540002024371285e-09 1.9267071327522686e-10
145 1.2236523204489312e-09 -7.266156116114366e-11 2.9948359517897756e-09
48 6.23533770775904e-11 2.778352303524052e-09 2.523372884828316e-09
26 1.1169186359735348e-09 1.1169240816039254e-09 -3.105024988187965e-16
32 -1.0445794215019925e-09 -4.624929574593006e-09 1.8188540619801906e-09
47 -4.624927428880009e-09 -1.0445809522830473e-09 1.8188523998382053e-09
49 -1.3166504362635477e-10 -1.3166871326237706e-10 1.9383613364515498e-17
126 -1.2395077939924191e-09 -1.2395052848434738e-09 3.1378017808354976e-09
149 2.5987445861526796e-09 2.598747560777409e-09 2.9729415101449863e-09
51 -5.214441421157933e-09 2.2932128243756926e-10 2.3279455016001654e-09
130 -1.0869202688800479e-09 2.0901069494614725e-09 1.0308578744965436e-09
52 2.2932112524857963e-10 -5.214441038142128e-09 2.327943820071706e-09
146 2.090107617867237e-09 -1.0869177955743103e-09 1.0308565307326344e-09
50 -1.6417179523294727e-09 -1.6417119618086188e-09 1.696066169395106e-16
150 -3.2117555200150836e-09 -3.211759255009089e-09 -1.256071244132946e-09
30 -2.1860540943607177e-09 -7.881609873276543e-09 -6.682750337691371e-16
34 -9.118853585573449e-09 3.658566102698434e-09 7.559616017819628e-16
36 -2.4781042021582934e-09 -5.6294920997736114e-09 -5.129614554026067e-09
53 2.049178449047267e-09 2.9463706928029267e-09 1.9044400130636477e-15
55 -4.05730448203098e-09 4.0572972215566245e-09 -4.315501707347644e-09
134 -3.76412628930208e-09 1.1262696139425488e-09 -2.1137144760447125e-09
153 -4.198003574583225e-09 1.5086546155702851e-09 -5.787112532655087e-10
54 -2.9463749829701226e-09 -2.04917029269156e-09 6.784264677580424e-17
56 2.797092366332179e-09 -2.797094230792565e-09 3.052104707241584e-09
154 -1.5086501282676074e-09 4.198004899989359e-09 -5.787079364434295e-10
24 1.458606552407303e-09 6.134679846531317e-09 -4.456728984334012e-09
38 -2.135954549839067e-09 3.695346325928655e-10 3.9978702564313214e-16
40 -8.746142818841196e-10 8.746157637367532e-10 2.3691621493838513e-09
57 -3.658558916633421e-09 9.118849527118753e-09 -1.3080910331459754e-15
59 -1.8236462831585337e-09 7.459302038414494e-09 1.3155337759787758e-09
138 -1.683212048551487e-09 3.2367592266574214e-09 -4.049725412782802e-09
157 -1.1262698537148262e-09 3.764123837588802e-09 -2.1137096087521388e-09
44 3.6433905029580367e-09 6.645105672466579e-09 2.074574290423298e-09
60 5.6294951795606534e-09 2.4781148127314765e-09 -5.129613022834188e-09
158 8.94018768490462e-10 2.247288831118083e-09 -1.4656658300829288e-09
42 -6.150745193661671e-09 1.5796388603753702e-09 1.0103708466253703e-15
61 6.150747274977157e-09 -1.579634969313745e-09 2.0595089199797716e-16
62 -8.088538672621998e-09 1.5900773595829661e-09 1.1787659877295987e-15
63 -3.6433840896510457e-09 -6.64510801481015e-09 2.074571511600601e-09
65 3.6116260302138226e-09 -6.329290095582157e-09 -3.873315397116368e-16
68 1.8236436754567983e-09 -7.45930352801868e-09 1.315534012367998e-09
142 -3.6369810049417543e-09 1.803031540791998e-09 3.6606948775532e-09
162 5.406413655427935e-10 -4.539997878700977e-09 1.926733034105627e-10
165 -8.940183135286155e-10 -2.247284197245344e-09 -1.465664824449142e-09
46 -7.8816121830617e-09 -2.18604849141633e-09 4.316317445780273e-16
66 3.658563652936058e-09 -9.118846449487759e-09 -1.3568647663347888e-16
67 -5.629495891385375e-09 -2.478111628884437e-09 -5.129612669777713e-09
69 2.9463728040551157e-09 2.0491704291245608e-09 2.2291155369192822e-15
72 4.057300800559111e-09 -4.057296200888233e-09 -4.315506073506555e-09
166 1.126267568410558e-09 -3.764126918128136e-09 -2.1137131567827246e-09
169 1.5086516116272205e-09 -4.198006459610699e-09 -5.787054100809388e-10
70 -2.049176989758371e-09 -2.9463676433194918e-09 2.4423352839289527e-15
71 -2.7970935551918887e-09 2.7970917285451282e-09 3.0521027252671176e-09
170 4.198006535910785e-09 -1.508654055281049e-09 -5.787060907552621e-10
73 1.6417177316421128e-09 1.641711138828476e-09 -2.0352794032741273e-15
74 1.3166843163210397e-10 1.3166758988355017e-10 1.308393902104796e-16
75 -2.2931736281194816e-10 5.214437846811909e-09 2.327940578162371e-09
76 5.214439479634145e-09 -2.293159347291655e-10 2.3279446099539506e-09
173 3.2117567079336016e-09 3.2117578713348e-09 -1.2560691498461516e-09
174 -2.5987464165310503e-09 -2.5987400391676034e-09 2.972947074992983e-09
64 1.0264791984220563e-09 -1.875301302187681e-09 -6.278883840186819e-10
161 3.636969732159107e-09 -1.8030296436208402e-09 3.660692332715703e-09
58 -3.611631683565808e-09 6.3292869537062394e-09 -8.887386727630356e-15
77 7.881607163926779e-09 2.1860469404018273e-09 6.528659839482062e-16
78 -3.3051372779097736e-09 8.092660887546686e-10 7.356687009751273e-16
79 -6.235079572545436e-11 -2.778346766170878e-09 2.523381031700439e-09
80 4.624927085532495e-09 1.0445819356074593e-09 1.8188511836622953e-09
177 -2.090105602953405e-09 1.086914786840092e-09 1.030855841349345e-09
178 -1.2236438949903086e-09 7.265171540593302e-11 2.9948329167540286e-09
105 -2.3280368856453723e-09 1.5092011467999104e-09 -4.686290491375e-09
81 2.069977791492296e-09 -3.3240823106723172e-09 6.299674343467537e-16
82 9.422004245054544e-09 4.3392710809986625e-09 -1.2599348686935074e-15
83 -1.4585990830530405e-09 -6.134679128429016e-09 -4.456729571899792e-09
85 2.13594758506449e-09 -3.695351219439211e-10 2.0228617759624844e-15
88 1.4395197578912866e-09 -1.4395116137449838e-09 -4.913333097556401e-09
181 1.09543692662675e-09 1.2322853378355928e-09 -3.2621750677485316e-09
182 -1.509196204735675e-09 2.3280304720923005e-09 -4.686285112270857e-09
185 1.6832063356289633e-09 -3.2367599406875546e-09 -4.049725948255121e-09
7 6.134674091810511e-09 1.4585957922853817e-09 -4.456732708323181e-09
11 6.6451004200681385e-09 3.643391879289232e-09 2.074575458588872e-09
87 8.746166728002993e-10 -8.746191883201403e-10 2.3691594931611093e-09
89 9.118854224239605e-09 -3.6585685493806564e-09 3.5435668182004894e-16
92 7.459302350974834e-09 -1.8236434970669815e-09 1.3155372333793751e-09
186 3.2367626205596505e-09 -1.6832088258190216e-09 -4.049726427325491e-09
189 3.7641275687566165e-09 -1.1262638252933207e-09 -2.113709866380047e-09
91 2.47810935274742e-09 5.629491718447396e-09 -5.129617989885112e-09
190 2.247273323305771e-09 8.940195548533106e-10 -1.4656598092420528e-09
15 -1.8752969507593226e-09 1.0264889073786933e-09 -6.278912533991977e-10
113 -1.8030353068095143e-09 3.6369924554966497e-09 3.6606944709279614e-09
90 6.329291999654528e-09 -3.6116309603147344e-09 -9.864441988785466e-16
93 2.1860451008943344e-09 7.881609190346081e-09 1.2440661915659287e-15
94 8.092642654835365e-10 -3.3051307631984694e-09 5.663649529944372e-16
95 1.044581699629062e-09 4.62492827462028e-09 1.8188567952183645e-09
96 -2.778347605922579e-09 -6.23563233868218e-11 2.5233671351640017e-09
193 1.0869217979155948e-09 -2.0901124186741593e-09 1.0308560060109801e-09
194 7.26660481461027e-11 -1.223653134443112e-09 2.9948347701891233e-09
101 1.338745223421136e-09 1.3387566605882768e-09 -7.368494475093435e-09
19 -1.7797262714187179e-09 1.3701772399746182e-09 9.835650575018757e-10
84 1.3701674484483312e-09 -1.7797312842028554e-09 9.835641591168267e-10
97 -1.1169193437357005e-09 -1.1169241826730556e-09 9.928044470137782e-16
98 -3.1115079622704455e-09 -3.111507284752585e-09 1.5531120208318043e-15
99 2.535126393504684e-09 -3.766979008526838e-09 1.5291007731530166e-09
100 -3.766984632588636e-09 2.5351219346678724e-09 1.529103443700061e-09
197 1.2394978654084637e-09 1.239507970789216e-09 3.1377991129447035e-09
198 3.426744135864447e-09 3.4267396212997473e-09 1.5960383958742775e-11
103 -4.880518210202959e-09 4.880526688110854e-09 -3.171820311643358e-10
104 4.880524572874046e-09 -4.8805197705838344e-09 -3.1718660001829684e-10
108 -1.7606472239877992e-09 -2.6506053059356243e-09 8.910217534404607e-10
123 -2.6506045342255174e-09 -1.760647925735177e-09 8.910229661783486e-10
202 -4.226598970602186e-09 -4.226600666668356e-09 2.3751081662184905e-09
225 2.514691598912818e-09 2.5146933258716213e-09 4.3608604559775515e-09
107 -2.816978504570559e-10 4.6467629389330527e-10 4.806947612848309e-09
112 1.6109390964313232e-09 -4.607282250759415e-09 6.3138643593204595e-09
127 -4.565276616705053e-09 -3.796946655587867e-09 4.019298346776891e-09
206 -1.0541854989713596e-09 -4.66104543118412e-09 1.3696026362748664e-09
209 5.133086663267176e-09 -1.6935879647346461e-09 -2.557690316898356e-11
229 1.6929229187146198e-09 -1.1919221249559193e-09 1.327509137322464e-09
111 -2.4326845511234144e-09 -2.019745239838511e-09 1.6871329137694003e-09
131 -7.710917354328184e-10 -6.985305913362553e-10 7.54293175762741e-09
210 -2.486806385728694e-09 3.894117672913516e-09 2.635039393352793e-09
115 -1.6109357517583137e-09 4.607278773312676e-09 6.313859823616672e-09
116 2.432685177456421e-09 2.0197461944814693e-09 1.6871311692441974e-09
135 -3.617022489656902e-09 -3.076340718631323e-09 3.4751877647547527e-09
213 2.4868028783168576e-09 -3.8941267008314404e-09 2.635040967665641e-09
214 -5.1330793199064e-09 1.6935938476613023e-09 -2.5577942312381277e-11
233 1.559259425561327e-10 7.91790397305915e-09 -1.2397946838239547e-09
216 7.57423573731391e-10 1.900529131618093e-09 3.0234272400460395e-15
221 -1.1788219730566366e-10 6.885843375533165e-09 3.312608764975414e-09
119 1.760641577298931e-09 2.650604506967311e-09 8.910159308353042e-10
120 2.8169640876058716e-10 -4.646801727659178e-10 4.806953775777613e-09
139 2.2160003902807174e-10 -2.2159413081185756e-10 1.7513432918892963e-10
217 1.054182943202186e-09 4.661049417636453e-09 1.369598034437811e-09
218 -6.885844932885352e-09 1.1788632512563274e-10 3.312611953428378e-09
237 -4.849969054032082e-10 4.535235924577854e-10 -2.015412289526939e-09
124 4.646713065800173e-10 -2.817005023374346e-10 4.8069502594690015e-09
128 -3.796947537948319e-09 -4.565277028367854e-09 4.019298096553892e-09
143 -4.607278863472979e-09 1.6109442770048639e-09 6.313861657123609e-09
222 -4.661043143403102e-09 -1.0541873883341774e-09 1.3696047390479525e-09
241 -1.6935970895706375e-09 5.133084085246598e-09 -2.557698797229203e-11
245 -1.1919231768198132e-09 1.6929223444750739e-09 1.3275125955370236e-09
144 -2.0197397712365907e-09 -2.432682506606508e-09 1.6871386682796179e-09
148 -6.985372844563056e-10 -7.71091263714415e-10 7.542928892638495e-09
242 3.894117290087152e-09 -2.4867995112090666e-09 2.6350309937365235e-09
132 -1.6339133018859859e-09 -2.005806467718902e-10 5.662023467391774e-09
147 -2.005769530545992e-10 -1.6339130014197924e-09 5.662020628298154e-09
226 -6.977146412230689e-10 -6.977156955220411e-10 -2.3563730400564353e-09
249 -5.507128080159537e-10 -5.507108043863567e-10 1.5316498494527095e-09
151 3.6230163877285977e-10 2.7367951312353296e-09 4.674260527698882e-09
230 1.153429527607413e-09 1.0603107442896061e-08 4.512405926586466e-09
152 2.7367935287556683e-09 3.6229839157069934e-10 4.674256717607381e-09
246 1.060310819145703e-08 1.153424736791588e-09 4.512411620929577e-09
250 2.7026276045979735e-09 2.70262476054938e-09 -1.4313867146093527e-09
136 -1.5060240745317798e-10 1.5393556519886669e-09 4.9451702638717315e-09
155 2.1797398272560033e-09 -2.1797377039329178e-09 -4.570121392695453e-09
234 -4.593554129022481e-10 4.744482479263038e-09 -3.105941209352134e-09
253 -1.2709666903936074e-09 2.452679235019329e-09 1.693903745602919e-11
156 -4.1138797199961866e-09 4.113876068744137e-09 2.0511607636734883e-09
254 -2.452678197804536e-09 1.2709645143187209e-09 1.694076191350154e-11
236 3.722647607821707e-10 9.954488518024953e-09 3.800787746133809e-15
140 -1.1323677854884467e-09 1.1323735673325879e-09 -2.4723547110847015e-09
159 3.0763388784373877e-09 3.6170126015911345e-09 3.475189186118776e-09
238 -4.5352517559169175e-10 4.849994156000682e-10 -2.015419488493164e-09
257 -4.744483672397555e-09 4.59355250585652e-10 -3.1059427194082563e-09
160 -1.5393613636512083e-09 1.5060032090401781e-10 4.945167291586755e-09
258 -7.91790201697998e-09 -1.559252349758657e-10 -1.239787170231895e-09
163 2.019747754862345e-09 2.4326785791532845e-09 1.6871412996051321e-09
164 4.607274414933712e-09 -1.6109378752636814e-09 6.313856713090725e-09
168 -3.0763416613488157e-09 -3.6170206433677293e-09 3.4751864339485474e-09
261 -3.8941156109816445e-09 2.4868016742991702e-09 2.635037827520276e-09
262 1.6935970217279906e-09 -5.133093691171001e-09 -2.557280005176394e-11
265 7.91789751528721e-09 1.5592844789555432e-10 -1.2397922790444217e-09
167 1.5393589632419798e-09 -1.5060108058225218e-10 4.945165264312084e-09
172 -2.1797373398834634e-09 2.179737011334225e-09 -4.5701201915565e-09
266 4.74448676892979e-09 -4.5935585065144994e-10 -3.1059365325526e-09
269 2.4526769207976145e-09 -1.2709610281763304e-09 1.694214474011221e-11
171 4.113877133672289e-09 -4.113874896372707e-09 2.051159033581884e-09
270 1.2709636711681491e-09 -2.4526792887430765e-09 1.6944282672571672e-11
175 -2.736791882988225e-09 -3.622980772678458e-10 4.674257100449838e-09
176 -3.6229910485422986e-10 -2.7367937860742005e-09 4.674253218073686e-09
273 -2.7026282800383824e-09 -2.702627482100267e-09 -1.4313819245891796e-09
274 5.507144240645326e-10 5.507132805140081e-10 1.5316462690287503e-09
179 6.985379212666854e-10 7.71093933504287e-10 7.542924610980024e-09
180 2.0056929366271623e-10 1.6339110370117253e-09 5.662023993778024e-09
277 -1.0603107284855253e-08 -1.1534281066228336e-09 4.512408216707324e-09
278 1.1919222785104814e-09 -1.6929208887354233e-09 1.3275140405245304e-09
205 6.885840461933781e-09 -1.1788270074397084e-10 3.3126108153982653e-09
183 -4.6467578904060786e-10 2.8170197730926403e-10 4.806942093516133e-09
184 2.6505987669948036e-09 1.760635524765658e-09 8.910218443517252e-10
188 -2.2159614080170276e-10 2.215933310863718e-10 1.7513540921963678e-10
281 4.661035239734753e-09 1.0541919628669314e-09 1.3695978624082424e-09
282 1.1788621546814035e-10 -6.885839291648124e-09 3.3126124793603248e-09
285 4.5353141828881235e-10 -4.84990221085287e-10 -2.015414684558469e-09
283 1.5702827488011658e-09 1.0669865530600543e-08 5.673795640064861e-15
187 1.132369771778796e-09 -1.1323675977854096e-09 -2.4723522796527002e-09
192 3.6170209365448815e-09 3.0763387524439007e-09 3.4751794991579974e-09
286 4.849896773420425e-10 -4.535332167480557e-10 -2.0154147057893792e-09
289 4.5935336706792415e-10 -4.744485407230952e-09 -3.1059362604248404e-09
191 1.505991715163191e-10 -1.5393555352409648e-09 4.945164848645733e-09
290 -1.5592325088131647e-10 -7.917901971095332e-09 -1.23978791621707e-09
195 1.6339144364957349e-09 2.0057339415733913e-10 5.662018701948943e-09
196 7.710932785454312e-10 6.98533416393792e-10 7.542934373658042e-09
293 -1.1534279881693494e-09 -1.0603105980171494e-08 4.51241127098934e-09
294 -1.692929948303154e-09 1.191927529198186e-09 1.3275129233923757e-09
201 4.226599301637958e-09 4.226598100459667e-09 2.3751184471052975e-09
199 3.7969588664588545e-09 4.5652804635075855e-09 4.0193014335640805e-09
200 4.565275230348421e-09 3.796955210679087e-09 4.01929085707717e-09
297 6.97716474624931e-10 6.977097071694807e-10 -2.3563675011004623e-09
298 -2.5146839678265316e-09 -2.5146973824984555e-09 4.36086616520886e-09
203 -5.633832085794392e-09 5.633829517465621e-09 -6.29025701177921e-15
204 5.633829163714677e-09 -5.633832735145439e-09 -1.1048659617773834e-15
208 -8.836498394415125e-10 -6.800406282874444e-09 -1.1364810135879123e-15
223 -6.800406467018771e-09 -8.836494014929981e-10 -3.35275937414354e-16
302 -4.226600690897872e-09 -4.226597495024619e-09 -2.3751028993272965e-09
303 -4.88052689890765e-09 4.880525677740007e-09 3.1718137552875717e-10
304 4.880524732788856e-09 -4.880522237148636e-09 3.1718179954529953e-10
308 -1.7606481907455159e-09 -2.6505993889362105e-09 -8.910226281765906e-10
323 -2.6506029635470968e-09 -1.76065148096245e-09 -8.910238820540801e-10
325 2.5146927328542e-09 2.5146931926092793e-09 -4.3608588983224966e-09
212 1.1364555382415044e-09 3.9821837910995965e-09 -1.1230873932210936e-15
227 -5.297698045929374e-09 -3.767553423515972e-09 3.8581749068800167e-16
306 -1.0541874061703197e-09 -4.661043549308436e-09 -1.3696045316238422e-09
307 -2.816973866475549e-10 4.6466961658403433e-10 -4.806953060067208e-09
309 5.133084676446806e-09 -1.6935907559749706e-09 2.5581041570436886e-11
312 1.6109463416625562e-09 -4.6072810877426125e-09 -6.313863092116736e-09
327 -4.565279930942098e-09 -3.796947046928961e-09 -4.019302206310567e-09
329 1.6929227999899879e-09 -1.1919235092752836e-09 -1.3275098712304433e-09
211 -7.574226249622125e-10 -1.9005287003326956e-09 -2.667343258695217e-15
231 -7.05406689261032e-09 9.150921522346553e-10 -7.852309063347369e-16
310 -2.486803479701034e-09 3.8941168684935615e-09 -2.6350346985810622e-09
311 -2.4326837264112395e-09 -2.0197350779792047e-09 -1.68713373999592e-09
331 -7.710956638592792e-10 -6.985373670425186e-10 -7.542928242042549e-09
215 -1.1364597299478945e-09 -3.9821869167072514e-09 -7.78112946157339e-16
235 2.939283604398112e-10 7.900421547500819e-09 -6.784971568997984e-16
313 2.4868080645313327e-09 -3.894115366263526e-09 -2.6350360142438194e-09
314 -5.133086744738926e-09 1.6935939978843059e-09 2.5581061559788168e-11
315 -1.6109412385725964e-09 4.607279730498373e-09 -6.313865381866759e-09
316 2.432681350536837e-09 2.019743718224862e-09 -1.687140118794779e-09
333 1.5592775201608015e-10 7.917901475237326e-09 1.2397936773800526e-09
335 -3.61702078062465e-09 -3.0763437896444818e-09 -3.4751885000291914e-09
321 -1.1788241930861048e-10 6.885841807277696e-09 -3.312609100402786e-09
220 1.0669864779182657e-08 1.570283849286924e-09 -3.0580678772111404e-15
239 2.009750895536074e-09 -2.009754783767767e-09 -6.487453097936281e-16
317 1.05418470552094e-09 4.661040145606148e-09 -1.3695978109205195e-09
318 -6.885840463145257e-09 1.1788457531915246e-10 -3.312609477928943e-09
319 1.7606435423127359e-09 2.6506035184030293e-09 -8.910234859014819e-10
320 2.816961464760688e-10 -4.646768845176319e-10 -4.806949730731634e-09
337 -4.849974337581068e-10 4.535250203145624e-10 2.015413908586901e-09
339 2.2159948278320106e-10 -2.2159427116677525e-10 -1.7513374468612723e-10
228 -3.767556725917016e-09 -5.297697060881213e-09 -7.946648530650694e-16
243 3.98218573915274e-09 1.1364523811354776e-09 2.649192416639651e-16
322 -4.661041833494855e-09 -1.0541874246784524e-09 -1.3696056715814766e-09
324 4.6466831665765583e-10 -2.816960634899741e-10 -4.806949629804436e-09
328 -3.79694473557756e-09 -4.565276788041335e-09 -4.019302209362919e-09
341 -1.6935930141659276e-09 5.133086857103309e-09 2.557740471997937e-11
343 -4.607280874522866e-09 1.6109452486084837e-09 -6.313862985506862e-09
345 -1.1919251129190972e-09 1.6929223558326599e-09 -1.3275092780615874e-09
244 -1.900532395333993e-09 -7.574262036618299e-10 2.798509179501925e-16
248 9.150959635376331e-10 -7.054067167615334e-09 -6.165926938019632e-16
342 3.894115715168566e-09 -2.4868060516642324e-09 -2.6350282765476595e-09
344 -2.0197343795633856e-09 -2.4326813625190158e-09 -1.687138939650205e-09
348 -6.985359826640003e-10 -7.71091364662946e-10 -7.542931713762283e-09
232 3.324814796600009e-09 5.538660164960107e-09 -1.1181046479070788e-15
247 5.538662616170871e-09 3.3248182583892504e-09 -5.501998323779362e-15
326 -6.977157797323299e-10 -6.977180434533072e-10 2.3563770650710074e-09
332 -1.633914312501065e-09 -2.005768006739235e-10 -5.662021143912444e-09
347 -2.005780037363786e-10 -1.6339166095266842e-09 -5.6620219810138525e-09
349 -5.507106531061354e-10 -5.507094881178616e-10 -1.5316467485288746e-09
251 4.757260097181691e-09 6.943992549495335e-09 7.741259602541153e-17
330 1.1534318081358139e-09 1.0603108805636012e-08 -4.512408673888018e-09
351 3.622978058774421e-10 2.736793121267916e-09 -4.674261690941653e-09
252 6.9439893154704404e-09 4.757258269064655e-09 -4.138160104622499e-16
346 1.060310834345798e-08 1.1534321602209785e-09 -4.51240723616907e-09
352 2.7367960614712517e-09 3.62303498467225e-10 -4.674261868586128e-09
350 2.7026249154372754e-09 2.702624429181162e-09 1.431387428929637e-09
255 -3.9136697430044625e-09 3.913665397176578e-09 -3.216350034487251e-16
334 -4.5935660070642647e-10 4.7444834602378494e-09 3.1059398742572573e-09
336 -1.5059981246532014e-10 1.539360683385344e-09 -4.945170312494031e-09
353 -1.270966583482959e-09 2.452675374045842e-09 -1.6942595863426372e-11
355 2.1797391193403325e-09 -2.1797401211530417e-09 4.570123288550137e-09
256 -3.3141464156646686e-09 3.3141464070156383e-09 -9.196142701837985e-16
354 -2.4526777464183964e-09 1.2709678869467718e-09 -1.6936166561168532e-11
356 -4.113873314839952e-09 4.113879083009295e-09 -2.0511601584549437e-09
224 -1.570277082728684e-09 -1.0669864832184725e-08 -5.59701835900385e-16
240 -1.5956469991938306e-09 1.5956400713692666e-09 -5.415296983711517e-16
259 -7.900418473380887e-09 -2.9392002548606447e-10 -9.231445864850506e-16
338 -4.535265357383272e-10 4.849964626087904e-10 2.0154217981339854e-09
340 -1.132367395468945e-09 1.1323770170100288e-09 2.472354171908555e-09
357 -4.744483047881762e-09 4.5935573877647394e-10 3.1059430643760006e-09
359 3.076337206600735e-09 3.6170087724188885e-09 -3.475189082448861e-09
260 -9.9544811359005e-09 -3.7226133236092375e-10 -1.6044483093518883e-16
358 -7.917903752873417e-09 -1.559277405810371e-10 1.2397876721046892e-09
360 -1.5393607374385564e-09 1.5060328870481872e-10 -4.9451710482159705e-09
263 1.9005295095985535e-09 7.574312912546002e-10 -6.495551293339119e-15
264 -3.982183497922444e-09 -1.1364599334758348e-09 -8.262265196624731e-16
268 7.900418416820108e-09 2.939213205741405e-10 -3.418923227745257e-16
361 -3.894119170297648e-09 2.4868026749782106e-09 -2.6350383414888987e-09
362 1.6935964402195897e-09 -5.1330796922648556e-09 2.55761953642268e-11
363 2.0197428992671974e-09 2.4326778952751754e-09 -1.6871325061645696e-09
364 4.607278168691587e-09 -1.610941783484726e-09 -6.313864657949253e-09
365 7.917907736258018e-09 1.5592669202828979e-10 1.2397907232077634e-09
368 -3.076340728694617e-09 -3.617013351249779e-09 -3.475188943256913e-09
267 9.954487059811183e-09 3.7226563016880504e-10 1.1682886146854e-15
272 3.913664912918007e-09 -3.913665971994887e-09 -6.871679047738136e-15
366 4.7444817838581625e-09 -4.593643942819093e-10 3.1059437700606747e-09
367 1.539358505360902e-09 -1.5060317620985536e-10 -4.945176978889444e-09
369 2.452672227334474e-09 -1.2709672272981796e-09 -1.69346391930092e-11
372 -2.179732935307235e-09 2.179738170263479e-09 4.570117817739403e-09
271 3.314150817825537e-09 -3.3141472121040393e-09 -6.348786438071283e-15
370 1.2709661297010728e-09 -2.4526688823525785e-09 -1.693439477775943e-11
371 4.113871451064682e-09 -4.113879409206122e-09 -2.0511585743532764e-09
275 -6.943992029336372e-09 -4.7572608102946395e-09 1.0068792762553736e-15
276 -4.757261930748704e-09 -6.94399132966412e-09 -1.7498733244015054e-15
373 -2.702621457994205e-09 -2.7026268818139905e-09 1.4313865917998349e-09
374 5.507120544779842e-10 5.507086431134666e-10 -1.5316468978432713e-09
375 -2.73679240430142e-09 -3.6230431543169245e-10 -4.674263302824172e-09
376 -3.622996491008508e-10 -2.7367890699800813e-09 -4.674263460686612e-09
279 -9.150928079459511e-10 7.05406322698731e-09 -1.7154497827596216e-15
280 -5.53866080531855e-09 -3.324811091527431e-09 -1.6409818775096177e-15
377 -1.0603111863741747e-08 -1.1534309690373634e-09 -4.512407903692256e-09
378 1.191924229592314e-09 -1.6929204771365082e-09 -1.3275086914044142e-09
379 6.985330244813592e-10 7.710961093148872e-10 -7.542925053471573e-09
380 2.0057723434733116e-10 1.6339118362829077e-09 -5.662021904474796e-09
305 6.8858468052212546e-09 -1.178890141287543e-10 -3.3126087278739665e-09
288 -2.00975305499175e-09 2.009751790513847e-09 -4.929924928252768e-15
381 4.661041175966346e-09 1.0541878293113816e-09 -1.3695990278479959e-09
382 1.1788696900610989e-10 -6.885845160037071e-09 -3.3126086274729067e-09
383 -4.646706814584863e-10 2.8169516275769057e-10 -4.8069532560544795e-09
384 2.6506018308171908e-09 1.7606471422131805e-09 -8.910231769372853e-10
385 4.5351847289341064e-10 -4.849962872476632e-10 2.0154224281392782e-09
388 -2.2159149077886076e-10 2.2159424681066878e-10 -1.7514212034146081e-10
207 -1.0669868535708944e-08 -1.5702755076666496e-09 -1.3216495820640062e-16
287 1.5956439271241794e-09 -1.5956428015264826e-09 -1.287738038647215e-14
292 -2.939184970578638e-10 -7.90042547086531e-09 -9.182986831439217e-16
386 4.849925377962056e-10 -4.535231589893062e-10 2.0154271244978173e-09
387 1.1323669094467861e-09 -1.1323662152826618e-09 2.4723544547960422e-09
389 4.5936563514226326e-10 -4.7444791260316144e-09 3.105944186202624e-09
392 3.6170113356935557e-09 3.0763389368786745e-09 -3.475190255537239e-09
291 -3.722651992764395e-10 -9.95448573738859e-09 1.4579354505224448e-16
390 -1.5593034543524236e-10 -7.917909804498084e-09 1.239789791278794e-09
391 1.5060098734852817e-10 -1.5393659150683664e-09 -4.945182704660237e-09
295 -3.324814226718049e-09 -5.5386619390384e-09 -2.2695071350563627e-15
296 7.054068512180485e-09 -9.150881801082603e-10 -7.995740512862643e-15
393 -1.1534340940817052e-09 -1.0603111695611617e-08 -4.512401840861438e-09
394 -1.6929210448643715e-09 1.1919288001877717e-09 -1.3275088495020107e-09
395 1.6339101905828997e-09 2.0057639296168773e-10 -5.662020944805523e-09
396 7.710986858941705e-10 6.985330396248072e-10 -7.542933043760444e-09
301 4.226598630177476e-09 4.2265987910008936e-09 -2.3751080553684513e-09
219 8.836598740958562e-10 6.8004009408717485e-09 -8.110830717214454e-16
284 6.800399800872987e-09 8.836551263220578e-10 -5.838102050225011e-15
299 3.767551792181676e-09 5.297698256304993e-09 -2.338148362094682e-15
300 5.297698226320966e-09 3.767550820275188e-09 1.5681040342934217e-15
397 6.977171418452473e-10 6.97716000786445e-10 2.3563704754250723e-09
398 -2.5146924914676395e-09 -2.5146926389648227e-09 -4.3608604287193456e-09
399 3.7969500275311605e-09 4.565278789247981e-09 -4.019302540550126e-09
400 4.565278380374886e-09 3.7969511248253985e-09 -4.019303386618776e-09
402 -1.338753379927095e-09 -1.3387526724252072e-09 7.368486889179581e-09
403 5.220272535831837e-09 -5.220273976882343e-09 -2.364287164716731e-10
404 -5.220269659182466e-09 5.220271311635506e-09 -2.364232018336709e-10
408 1.7797360625664188e-09 -1.3701776408216852e-09 -9.83564128905648e-10
423 -1.3701811104884773e-09 1.779732268981275e-09 -9.835633844537472e-10
425 -3.4267371768443804e-09 -3.4267425082466624e-09 -1.5959302713195396e-11
406 -1.2322872707405555e-09 -1.0954366482390086e-09 3.2621870560343642e-09
409 4.540007249769432e-09 -5.406411244591023e-10 -1.926717309149285e-10
412 1.8752951699998715e-09 -1.026484312364426e-09 6.278909559818801e-10
427 3.766977693972629e-09 -2.5351270422659945e-09 -1.529103313124498e-09
429 -7.26539309834641e-11 1.2236550829167045e-09 -2.99483270988044e-09
431 2.7783455439431944e-09 6.235426872380515e-11 -2.5233742983177465e-09
410 1.8030336027238698e-09 -3.636983780130024e-09 -3.6606973828852274e-09
414 -4.539999709161697e-09 5.406416024989787e-10 -1.926711328720711e-10
416 -6.645100523232878e-09 -3.6433845912020418e-09 -2.0745728248404065e-09
433 -2.2472784975242394e-09 -8.940213809854304e-10 1.4656654795547e-09
435 -7.459308944981443e-09 1.8236418921643688e-09 -1.3155359411889624e-09
421 1.509201434676856e-09 -2.32803576927039e-09 4.686290052669313e-09
417 1.232285806373872e-09 1.0954402115434775e-09 3.262181736317267e-09
418 2.328031763525541e-09 -1.5091991716399955e-09 4.686289694072466e-09
420 -6.134678287664787e-09 -1.4586015362665033e-09 4.456726320601518e-09
437 -3.2367590473589976e-09 1.6832058818555457e-09 4.04972975925523e-09
439 -1.4395191280752866e-09 1.4395148023493824e-09 4.913329895928638e-09
422 -1.0954389219274508e-09 -1.2322801124374462e-09 3.2621876452906535e-09
428 -2.5351229838059455e-09 3.7669829225023925e-09 -1.5291034479402263e-09
441 -5.406360556442074e-10 4.539998016809222e-09 -1.9267144500663137e-10
443 -1.0264865148274945e-09 1.8752915013954964e-09 6.278857776798567e-10
445 1.2236547464292913e-09 -7.266137489673398e-11 -2.9948319424104987e-09
448 6.235445286813212e-11 2.778351993689107e-09 -2.5233748025212118e-09
426 -1.2395069455949452e-09 -1.2395034036146396e-09 -3.137800006581222e-09
432 -1.0445752668236998e-09 -4.624926589556773e-09 -1.8188555563946553e-09
447 -4.624930541343624e-09 -1.0445815575713936e-09 -1.8188546286485632e-09
449 2.598748275374368e-09 2.5987419230574845e-09 -2.9729398208318483e-09
430 -1.0869237350206646e-09 2.0901081592573316e-09 -1.0308522251525438e-09
451 -5.214446645306597e-09 2.293168023999304e-10 -2.3279474348127295e-09
446 2.0901046886772e-09 -1.0869188810102477e-09 -1.030852195837254e-09
452 2.2932222443957136e-10 -5.214440193129451e-09 -2.3279473711463616e-09
450 -3.211760280145093e-09 -3.2117517995113773e-09 1.2560733224812617e-09
434 -3.764127166868438e-09 1.1262730836119935e-09 2.1137122912592532e-09
436 -2.4781080408347516e-09 -5.629494292544873e-09 5.12961192283927e-09
453 -4.197999219742401e-09 1.508650203177127e-09 5.787100553052008e-10
455 -4.0573025197947555e-09 4.057297747640006e-09 4.315501012263384e-09
454 -1.5086596954878118e-09 4.1980066752733756e-09 5.787085938906022e-10
456 2.7970945950960437e-09 -2.797086003720801e-09 -3.0521068855647545e-09
424 1.4586081224799854e-09 6.134679257754062e-09 4.456727637172883e-09
438 -1.6832109061297743e-09 3.2367618529146127e-09 4.049722643349043e-09
440 -8.746138173493894e-10 8.746196254674127e-10 -2.3691608880860725e-09
457 -1.1262691792593404e-09 3.7641187539070044e-09 2.11371131984818e-09
459 -1.823646134449875e-09 7.459306907581957e-09 -1.3155322321042583e-09
444 3.6433799805900228e-09 6.645106722820861e-09 -2.0745703897739775e-09
458 8.940181972269353e-10 2.247289164563793e-09 1.4656707843045136e-09
460 5.629499615906931e-09 2.4781108461534246e-09 5.12961794687772e-09
442 -3.6369812532943005e-09 1.8030376878203864e-09 -3.66069702428838e-09
462 5.40641398858379e-10 -4.539999431812998e-09 -1.926723633053145e-10
463 -3.64338368986402e-09 -6.6451084576045674e-09 -2.0745715091776494e-09
465 -8.940220933332217e-10 -2.2472850237834577e-09 1.4656661852393741e-09
468 1.823647973773062e-09 -7.459303507726459e-09 -1.3155389544322338e-09
466 1.126266743625032e-09 -3.764117723260205e-09 2.1137197105877864e-09
467 -5.629498108229987e-09 -2.4781119379561072e-09 5.129615813957979e-09
469 1.5086599979247238e-09 -4.198008137557967e-09 5.78708737219492e-10
472 4.057297418504657e-09 -4.05729044963504e-09 4.315500010195405e-09
470 4.1979994789574504e-09 -1.5086547598134014e-09 5.787093140733531e-10
471 -2.7970889009605287e-09 2.7970864431789276e-09 -3.0521076844434494e-09
473 3.211757634024909e-09 3.211751305532105e-09 1.2560777958557836e-09
474 -2.5987455214920906e-09 -2.5987389972023306e-09 -2.9729366115953893e-09
475 -2.2932407049776969e-10 5.214439788807673e-09 -2.3279433398729716e-09
476 5.214445511915718e-09 -2.2932180021098368e-10 -2.3279449376383475e-09
461 3.6369798067921532e-09 -1.803034571904538e-09 -3.6606943517726876e-09
464 1.0264800434264515e-09 -1.8752956052225654e-09 6.278862690847424e-10
477 -2.0901032266814128e-09 1.0869173285163944e-09 -1.0308592010182176e-09
478 -1.2236520929943432e-09 7.265610044801311e-11 -2.994830718819905e-09
479 -6.235103908066277e-11 -2.778353769561247e-09 -2.5233761373380647e-09
480 4.624927252740414e-09 1.044584324866289e-09 -1.8188546599922047e-09
405 -2.3280361054549345e-09 1.5092007473157538e-09 4.686295912577929e-09
481 1.0954357078820597e-09 1.2322854997190511e-09 3.26218463840763e-09
482 -1.5092004754908633e-09 2.3280379372063973e-09 4.6862962796551064e-09
483 -1.4586023504033682e-09 -6.134676967458995e-09 4.456727473926514e-09
485 1.6832119343698894e-09 -3.2367661477975727e-09 4.049728396950653e-09
488 1.4395087770743156e-09 -1.4395102774871375e-09 4.9133298692761695e-09
86 3.6952892762420127e-10 -2.1359450809517026e-09 1.1058915162967334e-14
407 6.1346739064050186e-09 1.4586083723729042e-09 4.456727767170806e-09
411 6.645100788024938e-09 3.643381457928016e-09 -2.074578874950728e-09
486 3.236762193391378e-09 -1.6832106775314417e-09 4.049722994451066e-09
487 8.746200432585782e-10 -8.74628430127732e-10 -2.3691679171573734e-09
489 3.764121277270697e-09 -1.1262701420797604e-09 2.113719520933847e-09
492 7.459312809135055e-09 -1.8236449166137915e-09 -1.3155413947988695e-09
490 2.2472780675965763e-09 8.940258052951809e-10 1.4656764782409395e-09
491 2.4781075939051412e-09 5.629497258072087e-09 5.12961624505704e-09
413 -1.8030359936376834e-09 3.636982111019192e-09 -3.660691458768393e-09
415 -1.8752965577714686e-09 1.0264892522896496e-09 6.27892229545852e-10
493 1.0869266636706244e-09 -2.090105788006339e-09 -1.0308525423495116e-09
494 7.265381243866068e-11 -1.2236567587547014e-09 -2.994832007590915e-09
495 1.0445800077933716e-09 4.624926875971429e-09 -1.8188612913080582e-09
496 -2.7783491431559727e-09 -6.23550554259257e-11 -2.523375897465849e-09
401 1.3387556623475687e-09 1.3387525761128782e-09 7.368491262001609e-09
419 -1.7797311200478797e-09 1.370176671641017e-09 -9.835628656392207e-10
484 1.3701761920480205e-09 -1.7797314529008654e-09 -9.835685962227905e-10
497 1.239504129214131e-09 1.2395012290607683e-09 -3.1377980797575957e-09
498 3.426742407997037e-09 3.4267381139209392e-09 -1.595839319771206e-11
499 2.5351256518921798e-09 -3.766984225444654e-09 -1.5291059244997026e-09
500 -3.766980591622886e-09 2.535127134629278e-09 -1.529100854473332e-09
