LAMMPS data file via write_data, version 29 Aug 2024, timestep = 27, units = metal

500 atoms
3 atom types

0 17.606021771078858 xlo xhi
0 17.606021771078858 ylo yhi
0 17.606021771078858 zlo zhi

Masses

1 55.549
2 58.71
3 58.71

Atoms # atomic

1 2 0.003941292723618461 0.003941292723617188 1.6024867841939461e-16 0 0 0
2 3 1.7566608843842693 1.7566608843842693 2.8109713163243275e-19 0 0 0
3 1 1.7559805879133963 0.004621589194490366 1.751151173202426 0 0 0
4 1 0.004621589194489677 1.755980587913396 1.7511511732024254 0 0 0
5 1 3.5163294438473596 0.004574120959279073 6.980769417880257e-21 0 0 0
8 1 3.5158716692174106 1.7600408905155487 1.7554739870323812 0 0 0
21 1 0.00457412095927915 3.516329443847359 2.1694409359360802e-20 0 0 0
23 1 1.7600408905155485 3.5158716692174097 1.755473987032381 0 0 0
25 1 3.515734922579502 3.515734922579502 7.241503491579746e-17 0 0 0
101 1 0.0005921635249743805 0.0005921635249750189 3.5198922282742293 0 0 0
102 1 1.7600100135829122 1.7600100135829118 3.5198922282742298 0 0 0
105 1 3.5195376341120888 0.0005657189994451705 3.519280916273171 0 0 0
121 1 0.00056571899944527 3.5195376341120888 3.5192809162731713 0 0 0
125 1 3.5202978866556873 3.520297886655687 3.5200696577889015 0 0 0
6 1 5.281338926276086 1.7604678548161374 3.585603769116577e-19 0 0 0
7 1 5.281051049504819 0.0005570707945635883 1.759877882015378 0 0 0
9 1 7.042488545901603 0.0001802797795417324 4.4322349240263704e-17 0 0 0
12 1 7.042390219590115 1.7605801278112383 1.7603966026521427 0 0 0
27 1 5.280714139479713 3.520350088174528 1.7598943138832372 0 0 0
29 1 7.042327944437959 3.5209564737592576 5.49905961978967e-19 0 0 0
106 1 5.280368883353704 1.7604186902199748 3.5197893323783185 0 0 0
109 1 7.041987207343916 0.00018476154778640857 3.5207857464669527 0 0 0
129 1 7.0418973349775404 3.5209003585190315 3.5207672400243037 0 0 0
11 1 8.803005810839338 3.1277115768158154e-05 1.7605753799829948 0 0 0
31 1 8.803007704018947 3.5211410004856996 1.7605509186004125 0 0 0
110 1 8.802946483486327 1.760580124354751 3.5210748117808643 0 0 0
10 1 8.803111134170425 1.7606124734529447 6.908553569176944e-16 0 0 0
14 1 12.324135402285142 1.7604218973283454 6.737830470735094e-16 0 0 0
15 1 12.32423372859663 2.2049296649134976e-05 1.7603966026521431 0 0 0
16 1 10.563618137347406 1.7605708999921188 1.760575379982995 0 0 0
33 1 10.563679852900492 3.5211204674899133 0 0 0 0
35 1 12.324572361989809 3.520851662848223 1.7603885340311305 0 0 0
113 1 10.563677464700419 2.2052753135491077e-05 3.5210748117808643 0 0 0
114 1 12.324636740842829 1.7604174155601007 3.5207857464669527 0 0 0
133 1 10.563773598014205 3.521058578283688 3.5210467113885735 0 0 0
17 1 14.085285021910659 0.00013432229175043347 4.2520048151619966e-17 0 0 0
18 1 15.850294504339386 1.756028056148608 2.34532478325902e-16 0 0 0
19 1 15.850752278969336 0.0005612865923386451 1.7554739870323808 0 0 0
20 1 14.085572898681926 1.7600451063133231 1.7598778820153775 0 0 0
37 1 14.08588276776107 3.5199750976362996 6.053428698631837e-16 0 0 0
39 1 15.846770320870737 3.5198536273160075 1.7594385053186428 0 0 0
117 1 14.08625506483304 0.0001834868879115095 3.5197893323783185 0 0 0
118 1 15.847086314074657 1.760036458108441 3.519280916273171 0 0 0
137 1 14.085542788503542 3.5206631834706674 3.520506353360051 0 0 0
22 1 1.7604678548161374 5.281338926276086 4.823819154313564e-16 0 0 0
24 1 0.000557070794564128 5.281051049504819 1.7598778820153778 0 0 0
28 1 3.520350088174528 5.280714139479714 1.7598943138832372 0 0 0
41 1 0.00018027977954154046 7.042488545901603 6.026224822044667e-20 0 0 0
43 1 1.7605801278112385 7.042390219590114 1.7603966026521427 0 0 0
45 1 3.5209564737592576 7.042327944437959 0 0 0 0
122 1 1.7604186902199748 5.280368883353704 3.5197893323783185 0 0 0
141 1 0.00018476154778683749 7.041987207343915 3.5207857464669523 0 0 0
145 1 3.5209003585190315 7.04189733497754 3.5207672400243033 0 0 0
44 1 3.127711576630412e-05 8.80300581083934 1.7605753799829953 0 0 0
48 1 3.521141000485699 8.803007704018947 1.760550918600412 0 0 0
142 1 1.760580124354751 8.802946483486327 3.521074811780865 0 0 0
26 1 5.280330602457173 5.280330602457173 8.512568209908779e-17 0 0 0
32 1 7.041895741426956 5.281333184525487 1.7603525442262065 0 0 0
47 1 5.281333184525487 7.041895741426956 1.7603525442262062 0 0 0
49 1 7.0418115900257865 7.041811590025787 2.2179042414471395e-16 0 0 0
126 1 5.28126325533687 5.28126325533687 3.5207072014452843 0 0 0
149 1 7.042124803680209 7.04212480368021 3.520956895365412 0 0 0
30 1 8.80294799293425 5.281639778968946 0 0 0 0
51 1 8.802849183476724 7.042164683904642 1.7604673251429868 0 0 0
130 1 8.802853814113348 5.281583084590701 3.520999047444027 0 0 0
46 1 5.281639778968946 8.802947992934248 0 0 0 0
52 1 7.042164683904642 8.802849183476724 1.760467325142987 0 0 0
146 1 5.281583084590701 8.802853814113348 3.5209990474440276 0 0 0
50 1 8.802851809116737 8.802851809116737 1.4462939572907203e-20 0 0 0
150 1 8.802927423616445 8.802927423616445 3.5210316693161317 0 0 0
34 1 12.324726970814671 5.28127144442752 0 0 0 0
36 1 10.563779183959818 5.281610052386863 1.7605052768815161 0 0 0
53 1 10.56377712093973 7.042166489022926 0 0 0 0
55 1 12.324546716672005 7.042077231514739 1.7604505112504973 0 0 0
134 1 12.324586711228468 5.281473882275534 3.5209178803805026 0 0 0
153 1 10.5637019888744 7.0422192528439265 3.5210231516387824 0 0 0
54 1 12.324457459163817 8.802846827247015 7.899366890682123e-16 0 0 0
56 1 10.563701464192654 8.802922483994092 1.7604805864479336 0 0 0
154 1 12.32440469534282 8.802921959312345 3.5210231516387824 0 0 0
38 1 15.846648850550444 5.280741180425675 2.3622801302415094e-19 0 0 0
40 1 14.085509358589611 5.2811145895971325 1.7602335543208623 0 0 0
57 1 14.085352503759225 7.041896977372073 4.3625743217141964e-16 0 0 0
59 1 15.845772285338521 7.042051586196935 1.7603885340311303 0 0 0
138 1 15.845960764716077 5.281081159683204 3.520506353360051 0 0 0
157 1 14.085150065911211 7.042037236958276 3.520917880380502 0 0 0
58 1 15.845503480696832 8.802944095286254 2.7852129301914345e-16 0 0 0
60 1 14.085013895799882 8.802844764226926 1.7605052768815166 0 0 0
158 1 15.845565369903058 8.80285035017254 3.521046711388573 0 0 0
42 1 1.7606124734529451 8.803111134170424 4.0612468140140103e-17 0 0 0
62 1 1.7604218973283456 12.324135402285144 7.219417336809512e-19 0 0 0
63 1 1.7605708999921195 10.563618137347406 1.7605753799829953 0 0 0
64 1 2.204929664811139e-05 12.324233728596631 1.7603966026521425 0 0 0
65 1 3.521120467489913 10.563679852900492 1.9213671362926107e-16 0 0 0
68 1 3.520851662848224 12.324572361989809 1.76038853403113 0 0 0
161 1 2.2052753135362683e-05 10.563677464700417 3.521074811780864 0 0 0
162 1 1.7604174155601002 12.324636740842829 3.520785746466953 0 0 0
165 1 3.5210585782836885 10.563773598014205 3.521046711388574 0 0 0
66 1 5.281271444427521 12.324726970814671 1.5221981407408e-16 0 0 0
67 1 5.281610052386863 10.563779183959818 1.7605052768815161 0 0 0
69 1 7.042166489022926 10.56377712093973 0 0 0 0
72 1 7.042077231514739 12.324546716672005 1.7604505112504967 0 0 0
166 1 5.281473882275534 12.324586711228468 3.5209178803805017 0 0 0
169 1 7.042219252843926 10.5637019888744 3.5210231516387815 0 0 0
70 1 8.802846827247015 12.324457459163817 1.0459648980797831e-18 0 0 0
71 1 8.802922483994092 10.563701464192652 1.7604805864479336 0 0 0
170 1 8.802921959312346 12.32440469534282 3.5210231516387824 0 0 0
73 1 10.563772139070009 10.563772139070007 8.273373965939418e-16 0 0 0
74 1 12.324812358160958 12.324812358160957 4.729213605781806e-16 0 0 0
75 1 12.324459264282101 10.56377476471002 1.7604673251429865 0 0 0
76 1 10.563774764710022 12.324459264282101 1.7604673251429872 0 0 0
173 1 10.5636965245703 10.5636965245703 3.521031669316131 0 0 0
174 1 12.324499144506536 12.324499144506536 3.5209568953654116 0 0 0
61 1 17.6060114747338 10.56351281401632 3.286704173350359e-16 -1 0 0
77 1 14.084984169217798 10.563675955252496 1.38422384162366e-18 0 0 0
78 1 15.845667474427486 12.324296003748787 1.1956030046936618e-18 0 0 0
79 1 15.845482947701045 10.563616244167799 1.760550918600412 0 0 0
80 1 14.085290763661257 12.324728206759788 1.760352544226207 0 0 0
177 1 14.085040863596046 10.563770134073398 3.5209990474440276 0 0 0
178 1 15.845723589667713 12.324726613209204 3.5207672400243033 0 0 0
81 1 0.0001343222917497649 14.085285021910659 1.356738497529125e-16 0 0 0
82 1 1.756028056148608 15.850294504339386 4.454355394908335e-16 0 0 0
83 1 1.7600451063133231 14.085572898681926 1.759877882015378 0 0 0
84 1 0.0005612865923396656 15.850752278969336 1.755473987032381 0 0 0
85 1 3.5199750976362996 14.08588276776107 7.434229446267019e-16 0 0 0
88 1 3.5198536273160075 15.846770320870737 1.759438505318643 0 0 0
181 1 0.00018348688791209214 14.086255064833042 3.5197893323783185 0 0 0
182 1 1.7600364581084416 15.847086314074657 3.5192809162731695 0 0 0
185 1 3.520663183470667 14.085542788503542 3.5205063533600507 0 0 0
86 1 5.280741180425676 15.846648850550444 6.24673569953379e-16 0 0 0
87 1 5.2811145895971325 14.085509358589611 1.7602335543208625 0 0 0
89 1 7.041896977372074 14.085352503759227 9.169209917027485e-16 0 0 0
92 1 7.042051586196936 15.845772285338521 1.760388534031131 0 0 0
186 1 5.281081159683204 15.845960764716077 3.520506353360051 0 0 0
189 1 7.042037236958276 14.085150065911211 3.520917880380502 0 0 0
90 1 8.802944095286254 15.845503480696832 9.702221963491914e-19 0 0 0
91 1 8.802844764226926 14.085013895799882 1.7605052768815168 0 0 0
190 1 8.802850350172541 15.845565369903056 3.521046711388574 0 0 0
13 1 10.56351281401632 17.6060114747338 8.114963167140263e-17 0 -1 0
93 1 10.563675955252496 14.0849841692178 0 0 0 0
94 1 12.324296003748785 15.845667474427486 2.4760235872745957e-16 0 0 0
95 1 12.324728206759787 14.085290763661257 1.7603525442262065 0 0 0
96 1 10.563616244167799 15.845482947701045 1.7605509186004127 0 0 0
193 1 10.563770134073398 14.085040863596046 3.5209990474440267 0 0 0
194 1 12.324726613209204 15.845723589667713 3.520767240024303 0 0 0
97 1 14.086293345729572 14.086293345729574 1.0256634647120024e-18 0 0 0
98 1 15.850889025607241 15.850889025607243 1.1883715349072085e-18 0 0 0
99 1 15.846273860012216 14.085909808707031 1.7598943138832377 0 0 0
100 1 14.085909808707031 15.846273860012216 1.759894313883237 0 0 0
197 1 14.085360692849875 14.085360692849875 3.5207072014452843 0 0 0
198 1 15.846326061531057 15.846326061531059 3.520069657788902 0 0 0
103 1 1.7604241000466845 0.00017807706120345215 5.281732000953063 0 0 0
104 1 0.00017807706120224047 1.7604241000466843 5.281732000953063 0 0 0
108 1 3.520682204487235 1.7604106965159163 5.281381779938059 0 0 0
123 1 1.7604106965159165 3.520682204487235 5.281381779938059 0 0 0
201 1 3.5439550071842084e-05 3.5439550072911385e-05 7.042485054899415 0 0 0
202 1 1.7605667375578142 1.7605667375578133 7.042485054899416 0 0 0
205 1 3.521067882903907 3.638984670642266e-05 7.0423204304045415 0 0 0
221 1 3.638984670667353e-05 3.521067882903907 7.042320430404541 0 0 0
225 1 3.521036948694017 3.5210369486940167 7.042223006702728 0 0 0
107 1 5.281002734003252 0.00018728646411187683 5.280960722119862 0 0 0
112 1 7.041781836045995 1.7605201445987242 5.281186775849288 0 0 0
127 1 5.28126804881991 3.5208500145670163 5.281231056151562 0 0 0
206 1 5.281531437136758 1.7605185901018159 7.042157951897683 0 0 0
209 1 7.0420625390404465 8.191449932894998e-05 7.0420671488206645 0 0 0
229 1 7.042150221946715 3.521018449882706 7.0421556070320275 0 0 0
111 1 8.802841738302149 8.047979865441753e-05 5.281563220842924 0 0 0
131 1 8.802845061393336 3.5210272204508297 5.281549241544374 0 0 0
210 1 8.802841330116447 1.7605330050367074 7.042158562104387 0 0 0
115 1 12.324842112140749 8.203250916190124e-05 5.281186775849287 0 0 0
116 1 10.563782209884595 1.7605216973092321 5.281563220842924 0 0 0
135 1 12.324600297285764 3.520953808447655 5.281431296709147 0 0 0
213 1 10.563782618070297 6.917207118022244e-05 7.0421585621043885 0 0 0
214 1 12.324561409146298 1.760520262608557 7.042067148820665 0 0 0
233 1 10.563707608146805 3.5210318661712043 7.04223717919166 0 0 0
119 1 15.84594174369951 0.0001914805919712244 5.281381779938059 0 0 0
120 1 14.085621214183492 1.7604148906437753 5.280960722119862 0 0 0
139 1 15.845946389393148 3.5206775587935986 5.281049567546543 0 0 0
217 1 14.085092511049986 8.35870060707104e-05 7.042157951897682 0 0 0
218 1 15.84555606528284 1.7605657872611802 7.0423204304045415 0 0 0
237 1 14.085122165800046 3.5209901709222446 7.042066238779705 0 0 0
124 1 0.000187286464111828 5.281002734003252 5.280960722119862 0 0 0
128 1 3.5208500145670163 5.28126804881991 5.281231056151561 0 0 0
143 1 1.7605201445987235 7.0417818360459945 5.281186775849288 0 0 0
222 1 1.7605185901018157 5.281531437136758 7.042157951897682 0 0 0
241 1 8.191449932984971e-05 7.0420625390404465 7.0420671488206645 0 0 0
245 1 3.521018449882706 7.042150221946715 7.042155607032027 0 0 0
144 1 8.047979865433863e-05 8.802841738302149 5.281563220842924 0 0 0
148 1 3.52102722045083 8.802845061393336 5.281549241544374 0 0 0
242 1 1.7605330050367074 8.802841330116449 7.042158562104388 0 0 0
132 1 7.042114989815405 5.281530811508865 5.281503962427862 0 0 0
147 1 5.281530811508865 7.042114989815405 5.281503962427862 0 0 0
226 1 5.281563710807202 5.281563710807203 7.042155856843503 0 0 0
249 1 7.04224040813181 7.042240408131811 7.0422718478668775 0 0 0
151 1 8.802923554582675 7.042239239813073 5.281626547919216 0 0 0
230 1 8.802926599429371 5.28161520003171 7.042271583246961 0 0 0
152 1 7.042239239813073 8.802923554582675 5.281626547919216 0 0 0
246 1 5.281615200031711 8.802926599429371 7.042271583246962 0 0 0
250 1 8.802955030353967 8.802955030353967 7.042314850670233 0 0 0
252 1 7.042269917421089 8.802952504916764 8.803010885539427 0 0 0
136 1 10.563709243826926 5.281597255139422 5.281602120582877 0 0 0
155 1 12.324421800280131 7.042202147906613 5.28159473717693 0 0 0
234 1 12.324423116253802 5.281586770616375 7.0422329774480055 0 0 0
253 1 10.563674057248788 7.042261753391009 7.0423019793669015 0 0 0
156 1 10.563674176179894 8.80294977200685 5.281650720932554 0 0 0
254 1 12.324362194795736 8.802949890937956 7.042301979366901 0 0 0
140 1 14.085199292684555 5.281424655502191 5.281386909535999 0 0 0
159 1 15.84567013973909 7.04202365090098 5.2814312967091475 0 0 0
238 1 15.8456337772645 5.281501782386698 7.042066238779705 0 0 0
257 1 14.08503717757037 7.042200831932941 7.042232977448006 0 0 0
160 1 14.085026693047324 8.802914704359818 5.281602120582877 0 0 0
258 1 15.84559208201554 8.80291634003994 7.042237179191661 0 0 0
163 1 1.7605216973092324 10.563782209884595 5.281563220842925 0 0 0
164 1 8.203250916248785e-05 12.324842112140749 5.281186775849287 0 0 0
168 1 3.520953808447654 12.324600297285764 5.2814312967091475 0 0 0
261 1 6.917207117939858e-05 10.563782618070297 7.042158562104388 0 0 0
262 1 1.760520262608558 12.324561409146298 7.0420671488206645 0 0 0
265 1 3.521031866171204 10.563707608146805 7.04223717919166 0 0 0
167 1 5.281597255139421 10.563709243826926 5.281602120582877 0 0 0
172 1 7.042202147906613 12.324421800280131 5.28159473717693 0 0 0
266 1 5.281586770616375 12.324423116253802 7.0422329774480055 0 0 0
269 1 7.042261753391008 10.563674057248788 7.0423019793669015 0 0 0
171 1 8.80294977200685 10.563674176179894 5.281650720932554 0 0 0
270 1 8.802949890937958 12.324362194795736 7.042301979366901 0 0 0
175 1 12.324384708373671 10.563700393604071 5.281626547919216 0 0 0
176 1 10.56370039360407 12.324384708373671 5.281626547919216 0 0 0
273 1 10.563668917832779 10.563668917832779 7.042314850670232 0 0 0
274 1 12.324383540054935 12.324383540054935 7.042271847866877 0 0 0
179 1 15.845596727735915 10.563778886793408 5.281549241544374 0 0 0
180 1 14.08509313667788 12.324508958371341 5.281503962427861 0 0 0
277 1 14.085008748155033 10.563697348757373 7.042271583246961 0 0 0
278 1 15.845605498304037 12.324473726240031 7.042155607032027 0 0 0
183 1 1.7604148906437755 14.085621214183492 5.280960722119862 0 0 0
184 1 0.00019148059197051745 15.84594174369951 5.281381779938059 0 0 0
188 1 3.5206775587935994 15.845946389393147 5.281049567546544 0 0 0
281 1 8.358700607069336e-05 14.085092511049988 7.042157951897682 0 0 0
282 1 1.76056578726118 15.845556065282839 7.0423204304045415 0 0 0
285 1 3.520990170922244 14.085122165800046 7.042066238779704 0 0 0
187 1 5.281424655502191 14.085199292684555 5.281386909536 0 0 0
192 1 7.04202365090098 15.84567013973909 5.281431296709148 0 0 0
286 1 5.281501782386698 15.8456337772645 7.042066238779705 0 0 0
289 1 7.042200831932941 14.085037177570369 7.042232977448006 0 0 0
191 1 8.802914704359818 14.085026693047324 5.2816021205828765 0 0 0
290 1 8.80291634003994 15.84559208201554 7.042237179191661 0 0 0
195 1 12.324508958371341 14.08509313667788 5.281503962427862 0 0 0
196 1 10.563778886793408 15.845596727735915 5.281549241544374 0 0 0
293 1 10.563697348757373 14.085008748155033 7.042271583246962 0 0 0
294 1 12.324473726240031 15.845605498304039 7.0421556070320275 0 0 0
199 1 15.845773933619729 14.085355899366833 5.281231056151561 0 0 0
200 1 14.085355899366833 15.84577393361973 5.281231056151562 0 0 0
297 1 14.085060237379542 14.085060237379544 7.042155856843503 0 0 0
298 1 15.84558699949273 15.845586999492728 7.042223006702728 0 0 0
208 1 3.521159843191876 1.7605763353119745 8.803010885539429 0 0 0
223 1 1.760576335311975 3.5211598431918762 8.803010885539429 0 0 0
301 1 3.543955007352162e-05 3.5439550073720905e-05 10.56353671617944 0 0 0
302 1 1.7605667375578136 1.7605667375578133 10.563536716179442 0 0 0
303 1 1.7604241000466838 0.00017807706120281222 12.324289770125795 0 0 0
304 1 0.00017807706120311106 1.760424100046684 12.324289770125795 0 0 0
305 1 3.5210678829039064 3.638984670681405e-05 10.563701340674315 0 0 0
308 1 3.5206822044872346 1.7604106965159159 12.324639991140799 0 0 0
321 1 3.638984670712591e-05 3.521067882903907 10.563701340674315 0 0 0
323 1 1.7604106965159163 3.5206822044872346 12.324639991140799 0 0 0
325 1 3.5210369486940167 3.521036948694017 10.563798764376129 0 0 0
207 1 5.281667750881893 2.722141276446981e-05 8.803010885539429 0 0 0
212 1 7.042220057467253 1.7605321111913732 8.803010885539429 0 0 0
227 1 5.281649089638952 3.5210763008114117 8.803010885539429 0 0 0
306 1 5.281531437136758 1.7605185901018154 10.563863819181176 0 0 0
307 1 5.281002734003253 0.00018728646411157737 12.325061048958997 0 0 0
309 1 7.0420625390404465 8.191449932904125e-05 10.563954622258194 0 0 0
312 1 7.0417818360459945 1.7605201445987244 12.32483499522957 0 0 0
327 1 5.28126804881991 3.520850014567016 12.324790714927296 0 0 0
329 1 7.042150221946715 3.5210184498827055 10.56386616404683 0 0 0
211 1 8.802913048626147 6.900668340594284e-05 8.803010885539429 0 0 0
231 1 8.802920740814985 3.5210409509125937 8.803010885539429 0 0 0
310 1 8.802841330116449 1.7605330050367078 10.563863208974471 0 0 0
311 1 8.802841738302149 8.047979865393109e-05 12.324458550235933 0 0 0
331 1 8.802845061393336 3.52102722045083 12.324472529534484 0 0 0
215 1 12.324403890719491 7.006591651357463e-05 8.803010885539429 0 0 0
216 1 10.563710899560599 1.76053317042448 8.803010885539429 0 0 0
235 1 12.324423649917065 3.5210341105808616 8.803010885539429 0 0 0
313 1 10.563782618070295 6.917207117948229e-05 10.563863208974471 0 0 0
314 1 12.324561409146298 1.7605202626085579 10.563954622258194 0 0 0
315 1 12.324842112140749 8.20325091626375e-05 12.32483499522957 0 0 0
316 1 10.563782209884595 1.7605216973092324 12.324458550235933 0 0 0
333 1 10.563707608146805 3.5210318661712043 10.563784591887199 0 0 0
335 1 12.324600297285764 3.520953808447654 12.32459047436971 0 0 0
204 1 17.606020827833312 1.7606031203534314 8.803010885539429 -1 0 0
219 1 15.84546410499487 2.5841795912255877e-05 8.803010885539429 0 0 0
220 1 14.084956197304852 1.760574955695122 8.803010885539429 0 0 0
239 1 15.845492679305897 3.5211312688808496 8.803010885539429 0 0 0
317 1 14.085092511049988 8.358700607086863e-05 10.563863819181176 0 0 0
318 1 15.845556065282839 1.7605657872611804 10.563701340674315 0 0 0
319 1 15.84594174369951 0.0001914805919703283 12.324639991140799 0 0 0
320 1 14.085621214183492 1.7604148906437753 12.325061048958997 0 0 0
337 1 14.085122165800046 3.520990170922244 10.563955532299152 0 0 0
339 1 15.845946389393147 3.5206775587935986 12.324972203532315 0 0 0
224 1 2.722141276480449e-05 5.281667750881893 8.803010885539429 0 0 0
228 1 3.5210763008114117 5.281649089638952 8.803010885539429 0 0 0
243 1 1.7605321111913728 7.0422200574672535 8.803010885539429 0 0 0
322 1 1.7605185901018157 5.281531437136759 10.563863819181176 0 0 0
324 1 0.00018728646411204138 5.281002734003252 12.325061048958997 0 0 0
328 1 3.5208500145670154 5.281268048819911 12.324790714927296 0 0 0
341 1 8.191449932935648e-05 7.0420625390404465 10.563954622258194 0 0 0
343 1 1.7605201445987249 7.0417818360459945 12.32483499522957 0 0 0
345 1 3.521018449882706 7.042150221946715 10.56386616404683 0 0 0
244 1 6.900668340573335e-05 8.802913048626147 8.803010885539429 0 0 0
248 1 3.5210409509125933 8.802920740814985 8.803010885539429 0 0 0
342 1 1.760533005036708 8.802841330116447 10.563863208974471 0 0 0
344 1 8.047979865447992e-05 8.802841738302149 12.324458550235933 0 0 0
348 1 3.5210272204508306 8.802845061393336 12.324472529534484 0 0 0
232 1 7.042239162525412 5.281617621121011 8.803010885539429 0 0 0
247 1 5.281617621121011 7.042239162525412 8.803010885539429 0 0 0
326 1 5.281563710807203 5.281563710807203 10.563865914235354 0 0 0
332 1 7.0421149898154045 5.281530811508865 12.324517808650995 0 0 0
347 1 5.281530811508865 7.042114989815405 12.324517808650995 0 0 0
349 1 7.04224040813181 7.04224040813181 10.56374992321198 0 0 0
251 1 8.802952504916764 7.042269917421089 8.803010885539429 0 0 0
330 1 8.802926599429371 5.28161520003171 10.563750187831896 0 0 0
351 1 8.802923554582675 7.042239239813074 12.324395223159641 0 0 0
346 1 5.281615200031711 8.802926599429373 10.563750187831896 0 0 0
352 1 7.042239239813073 8.802923554582675 12.324395223159641 0 0 0
350 1 8.802955030353967 8.802955030353965 10.563706920408626 0 0 0
236 1 10.563680167436374 5.281622272677432 8.803010885539429 0 0 0
255 1 12.324369670984996 7.042254277201748 8.803010885539429 0 0 0
334 1 12.324423116253802 5.281586770616375 10.56378879363085 0 0 0
336 1 10.563709243826926 5.281597255139422 12.324419650495981 0 0 0
353 1 10.563674057248788 7.042261753391009 10.563719791711957 0 0 0
355 1 12.324421800280131 7.042202147906613 12.324427033901928 0 0 0
256 1 10.563664691980511 8.802959256206233 8.803010885539429 0 0 0
354 1 12.324362194795736 8.802949890937956 10.563719791711957 0 0 0
356 1 10.563674176179894 8.80294977200685 12.324371050146302 0 0 0
240 1 14.085030289927934 5.281593658258809 8.803010885539429 0 0 0
259 1 15.845589837605884 7.0422002982696785 8.803010885539429 0 0 0
338 1 15.8456337772645 5.281501782386697 10.563955532299152 0 0 0
340 1 14.085199292684555 5.28142465550219 12.324634861542858 0 0 0
357 1 14.085037177570369 7.042200831932941 10.56378879363085 0 0 0
359 1 15.84567013973909 7.042023650900981 12.32459047436971 0 0 0
260 1 14.085001675509313 8.802943780750372 8.803010885539429 0 0 0
358 1 15.84559208201554 8.80291634003994 10.563784591887199 0 0 0
360 1 14.085026693047322 8.802914704359818 12.324419650495981 0 0 0
263 1 1.7605331704244804 10.563710899560597 8.803010885539429 0 0 0
264 1 7.006591651364077e-05 12.324403890719491 8.803010885539429 0 0 0
268 1 3.5210341105808607 12.324423649917065 8.803010885539429 0 0 0
361 1 6.917207117925185e-05 10.563782618070297 10.563863208974471 0 0 0
362 1 1.7605202626085574 12.324561409146298 10.563954622258192 0 0 0
363 1 1.7605216973092328 10.563782209884595 12.324458550235935 0 0 0
364 1 8.203250916173242e-05 12.324842112140749 12.324834995229573 0 0 0
365 1 3.5210318661712043 10.563707608146805 10.563784591887199 0 0 0
368 1 3.5209538084476537 12.324600297285764 12.32459047436971 0 0 0
267 1 5.281622272677433 10.563680167436372 8.803010885539429 0 0 0
272 1 7.042254277201747 12.324369670984998 8.803010885539429 0 0 0
366 1 5.281586770616375 12.324423116253804 10.56378879363085 0 0 0
367 1 5.281597255139423 10.563709243826926 12.32441965049598 0 0 0
369 1 7.042261753391008 10.563674057248788 10.563719791711957 0 0 0
372 1 7.042202147906613 12.324421800280131 12.324427033901927 0 0 0
271 1 8.802959256206234 10.563664691980511 8.803010885539429 0 0 0
370 1 8.802949890937958 12.324362194795736 10.563719791711957 0 0 0
371 1 8.80294977200685 10.563674176179894 12.324371050146302 0 0 0
275 1 12.324354030765656 10.56367144326998 8.803010885539429 0 0 0
276 1 10.563671443269982 12.324354030765654 8.803010885539429 0 0 0
373 1 10.563668917832779 10.563668917832779 10.563706920408626 0 0 0
374 1 12.324383540054937 12.324383540054935 10.563749923211981 0 0 0
375 1 12.324384708373671 10.563700393604071 12.324395223159641 0 0 0
376 1 10.56370039360407 12.324384708373671 12.324395223159641 0 0 0
279 1 15.845582997274153 10.56370320737176 8.803010885539429 0 0 0
280 1 14.085006327065734 12.324384785661332 8.803010885539429 0 0 0
377 1 14.085008748155033 10.563697348757373 10.563750187831896 0 0 0
378 1 15.845605498304039 12.32447372624003 10.56386616404683 0 0 0
379 1 15.845596727735915 10.56377888679341 12.324472529534482 0 0 0
380 1 14.08509313667788 12.32450895837134 12.324517808650995 0 0 0
203 1 1.7606031203534311 17.606020827833316 8.803010885539429 0 -1 0
283 1 1.760574955695122 14.084956197304852 8.803010885539429 0 0 0
284 1 2.5841795911545633e-05 15.84546410499487 8.803010885539429 0 0 0
288 1 3.521131268880849 15.845492679305897 8.803010885539429 0 0 0
381 1 8.35870060722429e-05 14.085092511049988 10.563863819181176 0 0 0
382 1 1.76056578726118 15.845556065282839 10.563701340674315 0 0 0
383 1 1.7604148906437755 14.085621214183492 12.325061048958995 0 0 0
384 1 0.00019148059197044524 15.84594174369951 12.324639991140799 0 0 0
385 1 3.520990170922244 14.085122165800048 10.563955532299152 0 0 0
388 1 3.5206775587935986 15.845946389393147 12.324972203532313 0 0 0
287 1 5.28159365825881 14.085030289927934 8.803010885539429 0 0 0
292 1 7.0422002982696785 15.845589837605882 8.803010885539429 0 0 0
386 1 5.281501782386698 15.8456337772645 10.563955532299152 0 0 0
387 1 5.28142465550219 14.085199292684553 12.324634861542858 0 0 0
389 1 7.042200831932941 14.085037177570369 10.56378879363085 0 0 0
392 1 7.04202365090098 15.845670139739092 12.32459047436971 0 0 0
291 1 8.802943780750372 14.08500167550931 8.803010885539429 0 0 0
390 1 8.80291634003994 15.84559208201554 10.563784591887199 0 0 0
391 1 8.802914704359818 14.085026693047324 12.32441965049598 0 0 0
295 1 12.324384785661332 14.085006327065734 8.803010885539429 0 0 0
296 1 10.56370320737176 15.845582997274152 8.803010885539429 0 0 0
393 1 10.563697348757373 14.085008748155033 10.563750187831895 0 0 0
394 1 12.324473726240031 15.845605498304037 10.56386616404683 0 0 0
395 1 12.324508958371341 14.08509313667788 12.324517808650995 0 0 0
396 1 10.563778886793408 15.845596727735915 12.324472529534484 0 0 0
299 1 15.845547647375334 14.084974858547794 8.803010885539429 0 0 0
300 1 14.084974858547792 15.845547647375334 8.803010885539429 0 0 0
397 1 14.085060237379542 14.085060237379544 10.563865914235354 0 0 0
398 1 15.845586999492728 15.84558699949273 10.563798764376129 0 0 0
399 1 15.845773933619729 14.085355899366835 12.324790714927296 0 0 0
400 1 14.085355899366833 15.845773933619729 12.324790714927296 0 0 0
401 1 0.0005921635249747455 0.0005921635249746714 14.08612954280463 0 0 0
402 1 1.760010013582912 1.7600100135829115 14.086129542804628 0 0 0
403 1 1.7559805879133967 0.0046215891944897496 15.854870597876433 0 0 0
404 1 0.004621589194490048 1.7559805879133963 15.854870597876433 0 0 0
405 1 3.5195376341120888 0.000565718999445633 14.086740854805686 0 0 0
408 1 3.51587166921741 1.7600408905155485 15.850547784046478 0 0 0
421 1 0.0005657189994452654 3.5195376341120888 14.086740854805686 0 0 0
423 1 1.7600408905155485 3.51587166921741 15.850547784046478 0 0 0
425 1 3.5202978866556873 3.5202978866556878 14.085952113289956 0 0 0
406 1 5.280368883353704 1.7604186902199754 14.08623243870054 0 0 0
407 1 5.2810510495048195 0.0005570707945643375 15.84614388906348 0 0 0
409 1 7.041987207343916 0.00018476154778717015 14.085236024611907 0 0 0
412 1 7.042390219590115 1.7605801278112392 15.845625168426716 0 0 0
427 1 5.280714139479713 3.5203500881745287 15.846127457195621 0 0 0
429 1 7.0418973349775404 3.520900358519032 14.085254531054556 0 0 0
410 1 8.802946483486327 1.760580124354751 14.084946959297994 0 0 0
411 1 8.803005810839338 3.127711576689064e-05 15.845446391095862 0 0 0
431 1 8.803007704018945 3.5211410004856996 15.845470852478446 0 0 0
413 1 10.563677464700417 2.205275313523951e-05 14.084946959297994 0 0 0
414 1 12.324636740842827 1.7604174155601005 14.085236024611905 0 0 0
415 1 12.324233728596631 2.204929664840599e-05 15.845625168426716 0 0 0
416 1 10.563618137347406 1.7605708999921192 15.845446391095862 0 0 0
433 1 10.563773598014205 3.521058578283688 14.084975059690283 0 0 0
435 1 12.324572361989809 3.5208516628482234 15.845633237047728 0 0 0
417 1 14.08625506483304 0.00018348688791285838 14.08623243870054 0 0 0
418 1 15.847086314074657 1.760036458108441 14.086740854805688 0 0 0
419 1 15.850752278969335 0.0005612865923381277 15.850547784046478 0 0 0
420 1 14.085572898681924 1.7600451063133227 15.84614388906348 0 0 0
437 1 14.085542788503542 3.520663183470667 14.085515417718804 0 0 0
439 1 15.846770320870737 3.519853627316008 15.846583265760215 0 0 0
422 1 1.7604186902199754 5.280368883353704 14.08623243870054 0 0 0
424 1 0.0005570707945628196 5.281051049504819 15.84614388906348 0 0 0
428 1 3.520350088174528 5.280714139479713 15.846127457195621 0 0 0
441 1 0.00018476154778558103 7.041987207343916 14.085236024611905 0 0 0
443 1 1.7605801278112394 7.042390219590115 15.845625168426716 0 0 0
445 1 3.5209003585190315 7.04189733497754 14.085254531054556 0 0 0
442 1 1.7605801243547512 8.802946483486327 14.084946959297993 0 0 0
444 1 3.12771157671124e-05 8.803005810839338 15.845446391095862 0 0 0
448 1 3.5211410004856996 8.803007704018947 15.845470852478448 0 0 0
426 1 5.28126325533687 5.28126325533687 14.085314569633573 0 0 0
432 1 7.041895741426956 5.281333184525488 15.845669226852651 0 0 0
447 1 5.281333184525488 7.041895741426956 15.845669226852651 0 0 0
449 1 7.04212480368021 7.04212480368021 14.085064875713448 0 0 0
430 1 8.802853814113346 5.281583084590702 14.08502272363483 0 0 0
451 1 8.802849183476724 7.042164683904643 15.84555444593587 0 0 0
446 1 5.281583084590701 8.802853814113348 14.08502272363483 0 0 0
452 1 7.042164683904643 8.802849183476724 15.84555444593587 0 0 0
450 1 8.802927423616445 8.802927423616445 14.084990101762726 0 0 0
434 1 12.324586711228468 5.281473882275534 14.085103890698354 0 0 0
436 1 10.563779183959818 5.281610052386863 15.84551649419734 0 0 0
453 1 10.5637019888744 7.0422192528439265 14.084998619440075 0 0 0
455 1 12.324546716672007 7.042077231514739 15.84557125982836 0 0 0
454 1 12.32440469534282 8.802921959312346 14.084998619440075 0 0 0
456 1 10.563701464192654 8.802922483994092 15.845541184630925 0 0 0
438 1 15.845960764716077 5.281081159683204 14.085515417718806 0 0 0
440 1 14.085509358589611 5.2811145895971325 15.845788216757995 0 0 0
457 1 14.085150065911211 7.042037236958276 14.085103890698354 0 0 0
459 1 15.845772285338521 7.042051586196935 15.845633237047728 0 0 0
458 1 15.845565369903056 8.80285035017254 14.084975059690283 0 0 0
460 1 14.085013895799882 8.802844764226926 15.84551649419734 0 0 0
461 1 2.205275313704403e-05 10.563677464700417 14.084946959297994 0 0 0
462 1 1.7604174155601005 12.324636740842829 14.085236024611905 0 0 0
463 1 1.76057089999212 10.563618137347406 15.845446391095862 0 0 0
464 1 2.2049296647919877e-05 12.324233728596631 15.845625168426716 0 0 0
465 1 3.5210585782836876 10.563773598014205 14.084975059690283 0 0 0
468 1 3.5208516628482234 12.324572361989809 15.845633237047728 0 0 0
466 1 5.2814738822755345 12.324586711228468 14.085103890698354 0 0 0
467 1 5.281610052386864 10.563779183959818 15.84551649419734 0 0 0
469 1 7.0422192528439265 10.5637019888744 14.084998619440075 0 0 0
472 1 7.042077231514739 12.324546716672005 15.845571259828361 0 0 0
470 1 8.802921959312346 12.324404695342817 14.084998619440075 0 0 0
471 1 8.802922483994092 10.563701464192654 15.845541184630923 0 0 0
473 1 10.563696524570299 10.5636965245703 14.084990101762724 0 0 0
474 1 12.324499144506536 12.324499144506534 14.085064875713446 0 0 0
475 1 12.324459264282103 10.56377476471002 15.845554445935871 0 0 0
476 1 10.56377476471002 12.324459264282101 15.84555444593587 0 0 0
477 1 14.085040863596044 10.563770134073398 14.08502272363483 0 0 0
478 1 15.845723589667713 12.324726613209206 14.085254531054554 0 0 0
479 1 15.845482947701045 10.563616244167799 15.845470852478448 0 0 0
480 1 14.085290763661257 12.324728206759788 15.845669226852651 0 0 0
481 1 0.00018348688791129585 14.086255064833042 14.086232438700542 0 0 0
482 1 1.760036458108442 15.847086314074657 14.086740854805688 0 0 0
483 1 1.7600451063133231 14.085572898681926 15.846143889063482 0 0 0
484 1 0.0005612865923385551 15.850752278969336 15.850547784046478 0 0 0
485 1 3.5206631834706674 14.085542788503542 14.085515417718806 0 0 0
488 1 3.5198536273160075 15.846770320870737 15.846583265760215 0 0 0
486 1 5.281081159683204 15.845960764716077 14.085515417718806 0 0 0
487 1 5.2811145895971325 14.085509358589611 15.845788216757995 0 0 0
489 1 7.042037236958275 14.085150065911211 14.085103890698354 0 0 0
492 1 7.042051586196936 15.845772285338523 15.845633237047728 0 0 0
490 1 8.802850350172541 15.845565369903058 14.084975059690285 0 0 0
491 1 8.802844764226927 14.085013895799882 15.84551649419734 0 0 0
493 1 10.563770134073398 14.085040863596044 14.08502272363483 0 0 0
494 1 12.324726613209204 15.845723589667713 14.085254531054554 0 0 0
495 1 12.324728206759788 14.08529076366126 15.845669226852651 0 0 0
496 1 10.563616244167799 15.845482947701045 15.845470852478446 0 0 0
497 1 14.085360692849875 14.085360692849875 14.085314569633573 0 0 0
498 1 15.846326061531057 15.846326061531059 14.085952113289956 0 0 0
499 1 15.846273860012216 14.085909808707031 15.846127457195621 0 0 0
500 1 14.085909808707031 15.846273860012216 15.846127457195621 0 0 0

Velocities

1 -4.995970898031309e-09 -4.995965444860991e-09 -9.336644078054943e-16
2 4.995967532848204e-09 4.995966893680081e-09 2.8109713163243276e-16
3 1.651326605259115e-09 -1.6513220422770074e-09 -8.715882387807171e-10
4 -1.6513226520556316e-09 1.6513263901228888e-09 -8.715865201013979e-10
5 5.14988099789832e-09 -1.130383540410428e-09 6.980769417880257e-18
8 -3.964143079910775e-09 1.4675314154555054e-09 -1.9708877692787963e-09
21 -1.1303830367533875e-09 5.14988146522264e-09 2.16944093593608e-17
23 1.4675323067765284e-09 -3.9641418553065635e-09 -1.970886376602939e-09
25 -3.1232082542191454e-09 -3.1232080541979154e-09 6.315442418606567e-16
101 -4.041481554259837e-10 -4.041490726174016e-10 -6.8167951902427644e-09
102 4.0414826148754056e-10 4.0414966680316905e-10 -6.8167972416826855e-09
105 1.1706046478503107e-09 -5.5143396736421e-09 -8.707833321247149e-09
121 -5.514339067177311e-09 1.1706037292747443e-09 -8.707835601138664e-09
125 3.0135880633015315e-09 3.0135891510345232e-09 -9.847845007383538e-10
6 8.123354699353381e-09 -1.8254579534801298e-09 3.585603769116577e-16
7 5.275597048031847e-09 -3.755461776686884e-09 -4.184968031254722e-10
9 5.165882875887715e-09 4.1381351135650425e-10 7.424308980759029e-16
12 4.304683513642103e-09 -3.975050143985546e-09 9.667392161756818e-11
27 -2.866957786007087e-09 1.5206034973378255e-09 3.867973906248085e-09
29 8.611752808486009e-10 -2.789925835502717e-10 5.49905961978967e-16
106 -1.2290380318044497e-09 -2.946946361942347e-09 2.5817189969209353e-10
109 -1.2315266168542473e-09 1.3590873538865243e-09 2.2071120460282564e-09
129 2.419675880246612e-09 -4.760565754773731e-09 3.8602710982490885e-09
11 2.9081163099868044e-09 4.500737968864965e-09 1.8303717082741458e-10
31 -2.965480757005576e-09 -4.726849793835076e-09 6.471928103958906e-10
110 -2.2178192584922083e-09 -6.977650017928936e-10 5.242867958251584e-09
10 3.990314012226122e-10 -1.128223261882066e-09 -1.563504030079489e-15
14 -5.165883614073185e-09 -4.1381227796513043e-10 -4.4184704114164296e-16
15 -4.304681652835683e-09 3.975049263396382e-09 9.667177292499806e-11
16 -2.9081143902634443e-09 -4.500740613172417e-09 1.8303673452873748e-10
33 -3.304494413948894e-09 -8.345010120220386e-10 -3.5117707450761743e-16
35 -2.402870660315599e-09 -1.6051623683228943e-09 -5.170293860334338e-09
113 2.217816687502256e-09 6.97765565847537e-10 5.2428675990885845e-09
114 1.2315244447015102e-09 -1.3590900247093655e-09 2.207112787856532e-09
133 -7.963820893475448e-09 9.458683760106458e-10 1.6157298031047214e-09
17 -8.123355938345205e-09 1.8254570154982362e-09 9.913139832263476e-16
18 -5.14988109882817e-09 1.1303830915920333e-09 -1.4029051385719985e-15
19 3.964139996592845e-09 -1.4675355922743013e-09 -1.970886896666141e-09
20 -5.2755947196115675e-09 3.755462425108675e-09 -4.184946635143491e-10
37 -8.026347024614693e-09 1.4737676575693938e-09 -1.4728093465077166e-15
39 -1.2890765583045112e-09 1.2890755800128232e-09 2.962566628651679e-09
117 1.2290410246466177e-09 2.9469479173109734e-09 2.5817041750443467e-10
118 -1.1706069292001248e-09 5.514340750904526e-09 -8.707833729995856e-09
137 -3.430705520794107e-09 7.207281711091833e-10 -1.998819453026114e-09
22 -1.8254585127137933e-09 8.123354133778057e-09 -1.1466022641094113e-15
24 -3.755462094871555e-09 5.275595530440117e-09 -4.184968383788874e-10
28 1.520603188597379e-09 -2.8669607210467103e-09 3.867974108528562e-09
41 4.138131449620351e-10 5.165882910199533e-09 6.026224822044667e-17
43 -3.975051812044577e-09 4.304686871454573e-09 9.667415694164748e-11
45 -2.789921210469326e-10 8.611742406614709e-10 -1.1088371372265743e-16
122 -2.9469462076709914e-09 -1.2290396895388625e-09 2.58171351606946e-10
141 1.3590878528579395e-09 -1.2315250101120541e-09 2.2071124606325244e-09
145 -4.760565621735403e-09 2.419678413671435e-09 3.860271795633956e-09
44 4.500744886971061e-09 2.9081113540195107e-09 1.8303471212768719e-10
48 -4.726848972083994e-09 -2.9654811087799766e-09 6.471946311467468e-10
142 -6.977640231339826e-10 -2.2178209120882996e-09 5.242867055221794e-09
26 -1.7387435059815813e-09 -1.7387434372826182e-09 -6.267273814926454e-17
32 -3.27102655578343e-09 -4.578823780652583e-09 -1.97211313458734e-09
47 -4.5788240589458816e-09 -3.2710263490839183e-09 -1.9721119534472747e-09
49 -3.4888065608447566e-09 -3.488809349969924e-09 1.8801821444779362e-16
126 -3.8560872046032754e-09 -3.856087823474229e-09 8.184580364194414e-09
149 -5.0199918220084475e-09 -5.019994037006389e-09 8.91456863275125e-09
30 -7.060107228871583e-09 -6.183552677252213e-09 -6.460114706657231e-16
51 -1.968144646956534e-09 -1.6327587357222444e-09 -3.3919138550635093e-09
130 3.0189666000414857e-09 -1.8681062079741168e-09 5.0359001054293265e-09
46 -6.183552607522201e-09 -7.060103070333905e-09 -4.579930864753947e-16
52 -1.6327589511597818e-09 -1.96814485499613e-09 -3.39191451071677e-09
146 -1.8681075820164745e-09 3.018966616449413e-09 5.0358988094520146e-09
50 -2.297947360313109e-09 -2.2979468484512223e-09 1.44629395729072e-17
150 -2.9128319500786595e-09 -2.912831977589779e-09 -5.194801278079825e-09
34 -2.585045116543258e-09 1.228011462629926e-09 -5.837363877719415e-16
36 -6.001046438886611e-09 -2.41692316662518e-09 -2.5175617978036253e-09
53 -4.046464697228624e-09 3.1325347504903755e-11 -7.95461676509896e-16
55 -4.298848758410002e-09 4.298848999905077e-09 -6.141077440504032e-09
134 -7.1278114829447175e-09 -2.317458385096292e-09 8.628139050197731e-10
153 -2.1123386196640185e-09 -1.4067550507445265e-09 2.775851418140994e-09
54 -3.132216791803202e-11 4.046464409954103e-09 -4.0515003906857273e-16
56 -1.6760056430327032e-10 1.6759618968659146e-10 -1.3277683403393795e-09
154 1.4067534725908334e-09 2.1123413025408124e-09 2.775852809285578e-09
38 -1.4737679549635888e-09 8.026347140920832e-09 2.3622801302415094e-16
40 -2.3993151002903326e-09 2.3993145951420368e-09 -5.675117369039713e-09
57 -1.2280106801611196e-09 2.585046308483448e-09 -3.166027865881717e-16
59 1.605164913046981e-09 2.402869338463184e-09 -5.1702934523589175e-09
138 -7.207276398080134e-10 3.4307073977385904e-09 -1.9988190778541896e-09
157 2.3174601644815875e-09 7.1278098754268835e-09 8.628145168750344e-10
58 8.344978663326814e-10 3.304492610040277e-09 2.7720634181405467e-17
60 2.4169222699700064e-09 6.001049398554275e-09 -2.517563434668115e-09
158 -9.458700182557776e-10 7.963821175480074e-09 1.6157308699630822e-09
42 -1.1282256410356257e-09 3.9903441915600307e-10 8.939904523503263e-16
62 -4.1381300997459905e-10 -5.165886976131084e-09 7.219417336809511e-16
63 -4.5007421100866625e-09 -2.908112712933208e-09 1.8303549312642414e-10
64 3.975051272094833e-09 -4.3046860735824076e-09 9.667427746614393e-11
65 -8.344991752287128e-10 -3.304493567072456e-09 -2.058532505275676e-16
68 -1.6051645202877783e-09 -2.402870437043969e-09 -5.170293376729796e-09
161 6.97765871979758e-10 2.217822506853371e-09 5.2428686765775824e-09
162 -1.3590903332520762e-09 1.2315238060723346e-09 2.2071108465082056e-09
165 9.458671020667185e-10 -7.963820388490717e-09 1.615728951599154e-09
66 1.2280097943931685e-09 -2.585044279515931e-09 -7.333813344830516e-16
67 -2.4169237873263365e-09 -6.001047780324256e-09 -2.517562901808601e-09
69 3.132554243444479e-11 -4.046466804062734e-09 -3.6157348932268e-16
72 4.298850487779985e-09 -4.2988483469636174e-09 -6.1410763654255235e-09
166 -2.317459302185525e-09 -7.127810574401874e-09 8.62816511531322e-10
169 -1.4067524978314828e-09 -2.1123373775949447e-09 2.7758540493414068e-09
70 4.046467751222703e-09 -3.132369611215104e-11 1.045964898079783e-15
71 1.6759793267192935e-10 -1.6759701863736463e-10 -1.32776934310319e-09
170 2.1123366306579476e-09 1.4067523727737824e-09 2.7758512155939283e-09
73 2.2979437144941717e-09 2.2979488438943325e-09 -7.95461676509896e-16
74 3.488807664401885e-09 3.4888134970955174e-09 -5.111986489691678e-16
75 1.6327652272469506e-09 1.968144676113767e-09 -3.3919118822058837e-09
76 1.968140712534981e-09 1.6327633500696795e-09 -3.3919160775352238e-09
173 2.9128300557582327e-09 2.9128292251292465e-09 -5.194798998396639e-09
174 5.019991884147307e-09 5.019992062220359e-09 8.914570442031093e-09
61 1.1282253650345289e-09 -3.9903145666388056e-10 -9.40091072238968e-16
77 6.183554362144655e-09 7.060103287355681e-09 1.38422384162366e-15
78 2.7899333080214964e-10 -8.611763499008843e-10 1.1956030046936618e-15
79 4.726848680791351e-09 2.9654806551623765e-09 6.471935073287913e-10
80 4.578824324531143e-09 3.2710272674805812e-09 -1.972114894244988e-09
177 1.8681039712905712e-09 -3.0189701582665382e-09 5.035898863688038e-09
178 4.760567425648139e-09 -2.419676682274332e-09 3.8602713995097184e-09
81 1.8254563336308975e-09 -8.123352516052129e-09 8.165534633870523e-17
82 1.1303850205865989e-09 -5.149881468537063e-09 -1.6421462640071717e-16
83 3.7554626541052186e-09 -5.2755957253884905e-09 -4.184961938741427e-10
84 -1.4675374700459559e-09 3.964139191489209e-09 -1.970887916303381e-09
85 1.4737696007255876e-09 -8.026346308699184e-09 -2.19780656449297e-16
88 1.2890764208877532e-09 -1.2890771650988594e-09 2.9625651609805134e-09
181 2.946947547903392e-09 1.2290375208488505e-09 2.581717899771379e-10
182 5.514339891564867e-09 -1.1706058929907667e-09 -8.707829287462918e-09
185 7.207293109696084e-10 -3.4307067027563046e-09 -1.99881808648783e-09
86 8.026345485516873e-09 -1.473767606647794e-09 -7.665357973640816e-16
87 2.3993149378301673e-09 -2.3993147516732267e-09 -5.675118636354793e-09
89 2.585045900263212e-09 -1.2280133928662232e-09 -1.7319370138556372e-15
92 2.402869249576368e-09 1.6051665085653304e-09 -5.170292909998684e-09
186 3.430707487643457e-09 -7.207274211755177e-10 -1.9988184386647634e-09
189 7.127810241280522e-09 2.317459640000782e-09 8.628150920917291e-10
90 3.304493696234345e-09 8.344998549868727e-10 9.702221963491914e-16
91 6.0010500881437255e-09 2.4169206989331953e-09 -2.5175640987580903e-09
190 7.963818391315033e-09 -9.458644441031585e-10 1.6157280011222599e-09
13 -3.990328647478061e-10 1.1282238524520986e-09 -1.337821910493916e-15
93 7.060104297592392e-09 6.183548093665596e-09 -4.372779386496161e-17
94 -8.611738261508847e-10 2.789960547082306e-10 1.1324753571901552e-15
95 3.2710308192433315e-09 4.578824598563713e-09 -1.9721143805352233e-09
96 2.9654772987572996e-09 4.726851451159894e-09 6.47192558499693e-10
193 -3.018968242814064e-09 1.8681035972556258e-09 5.035902092473386e-09
194 -2.419675563032523e-09 4.7605644553266326e-09 3.860271860071013e-09
97 1.7387402106911928e-09 1.7387371547925857e-09 1.0256634647120024e-15
98 3.123212714840175e-09 3.1232080053454762e-09 1.1883715349072084e-15
99 -1.52060275946426e-09 2.8669613188005073e-09 3.8679743111085835e-09
100 2.866958737165794e-09 -1.5206014529787185e-09 3.867975477484398e-09
197 3.856087704979464e-09 3.85608932091165e-09 8.184579818981138e-09
198 -3.013589905273644e-09 -3.013587879633498e-09 -9.847858895801433e-10
103 4.69414281837905e-10 -4.694173594309217e-10 2.5273136753988565e-09
104 -4.69413876875597e-10 4.6941512791987e-10 2.527313298759805e-09
108 -6.133738864815948e-11 -4.460701397551478e-09 2.035063107794792e-09
123 -4.460701264218895e-09 -6.133846598650205e-11 2.0350626189761534e-09
201 5.61302297491809e-09 5.613020251667093e-09 -3.157153036149577e-09
202 -5.613021000726838e-09 -5.613017676661227e-09 -3.1571556965395165e-09
205 -3.175455905152283e-09 1.090065193483731e-09 -4.373133618106314e-09
221 1.0900659457266647e-09 -3.175455439033209e-09 -4.373131440960755e-09
225 -5.552444157008212e-09 -5.552443339790334e-09 4.527421313463293e-09
107 1.1362527896686663e-09 6.624819520207475e-10 -1.3184182463604243e-09
112 1.0777161508427396e-09 -4.978808536981349e-09 3.509015963816234e-09
127 -5.633445328955624e-09 -2.731557868608325e-09 -1.0664655994338104e-09
206 -4.732254832378759e-09 -5.401420736719366e-09 4.962794592069954e-10
209 8.77905650786163e-11 -1.030027150525242e-09 5.093497510895181e-09
229 -2.625620457870194e-09 -2.333704033711195e-10 3.644685692817268e-09
111 2.0301695947345004e-09 1.9820441457919357e-10 3.788691125799649e-09
131 8.517762554235847e-10 1.6692387970161446e-09 4.918882190837325e-09
210 -3.969485146524839e-10 7.408694164468737e-10 4.409671700474237e-09
115 -1.0777190325348982e-09 4.978812830521764e-09 3.5090182542006773e-09
116 -2.03016717353217e-09 -1.982050846953938e-10 3.7886909775545186e-09
135 -1.2520747214131365e-09 3.688320380588975e-09 -3.1266103852898745e-09
213 3.9694975053703516e-10 -7.408705710715496e-10 4.409666101471091e-09
214 -8.77894170827877e-11 1.0300279508078984e-09 5.09349374250848e-09
233 1.3329741708501024e-09 5.346005381434018e-09 1.5975161901397564e-09
119 6.133721102518286e-11 4.460700606155144e-09 2.0350624017307486e-09
120 -1.1362524191311674e-09 -6.624835079919965e-10 -1.3184179221871926e-09
139 1.2745907666844564e-09 -1.2745944536606262e-09 -6.389099005706712e-09
217 4.732258534901883e-09 5.4014213206605515e-09 4.962812973562217e-10
218 3.1754505653238844e-09 -1.090063559040324e-09 -4.373133870131981e-09
237 2.018352465516313e-09 8.380652087048685e-10 4.7739809096181145e-09
124 6.624813976080638e-10 1.1362526740404774e-09 -1.3184184015357133e-09
128 -2.7315580744321507e-09 -5.633445918032452e-09 -1.066464226063647e-09
143 -4.97880713407621e-09 1.0777195868534222e-09 3.509015981292286e-09
222 -5.4014194109499055e-09 -4.732255034196087e-09 4.962816777616636e-10
241 -1.030028305149918e-09 8.779123097645913e-11 5.093496434611428e-09
245 -2.33371258793733e-10 -2.625619584670217e-09 3.644687897509265e-09
144 1.982047930261124e-10 2.030168246630344e-09 3.788691817007636e-09
148 1.6692377612775853e-09 8.517748119714868e-10 4.9188828444726244e-09
242 7.408689777377067e-10 -3.969527797131017e-10 4.409668304357575e-09
132 -3.363539907604564e-09 5.244192863415134e-09 3.42046812163207e-09
147 5.24419258148405e-09 -3.3635394936029185e-09 3.420467338222843e-09
226 -4.222897359022588e-10 -4.2229149468833364e-10 6.337710190980367e-09
249 4.496529488773329e-09 4.496526355437732e-09 2.6534387345728006e-09
151 -1.7060905452542793e-09 4.051907272723014e-10 6.955829286844856e-10
230 -1.1541611408047797e-09 6.664023216835069e-09 -4.3662393481496837e-10
152 4.0519069955166717e-10 -1.7060895816424985e-09 6.9558320167247e-10
246 6.664019826099775e-09 -1.1541611320627762e-09 -4.3662688715196046e-10
250 3.95265247684287e-09 3.952652246169817e-09 6.8212538455216005e-09
252 9.26441613209508e-09 7.354490004598728e-10 5.167956229723453e-15
136 -1.1172636301442381e-09 6.430205920849328e-09 1.3342903462932687e-09
155 -2.8558521459453295e-09 2.8558514748274397e-09 -1.3350226243637166e-09
234 -7.494153620050881e-10 8.183392625576127e-09 -3.75254103446683e-09
253 -3.1655981034527306e-09 5.039541006703679e-09 -7.494797497479718e-10
156 -3.8293368891028765e-10 3.8293576421373503e-10 -4.855416287298634e-09
254 -5.039541607313919e-09 3.165598051148269e-09 -7.494784012265698e-10
140 -3.0733748770908074e-09 3.0733716714405134e-09 -8.061449978548854e-09
159 -3.688318649977191e-09 1.2520759452699549e-09 -3.126612284228055e-09
238 -8.380640246795422e-10 -2.018351268105441e-09 4.773981856338034e-09
257 -8.18339413695037e-09 7.494172608096796e-10 -3.752540905288723e-09
160 -6.4302071764405654e-09 1.1172652121947988e-09 1.3342901680676696e-09
258 -5.346005305343513e-09 -1.3329773039320558e-09 1.5975140338317533e-09
163 -1.982055378675004e-10 -2.0301677765848077e-09 3.78868856224361e-09
164 4.978808370657543e-09 -1.0777181731010788e-09 3.5090178283301937e-09
168 3.6883234413438033e-09 -1.2520744204208615e-09 -3.1266136930846793e-09
261 -7.408699684490675e-10 3.9695097606401246e-10 4.409667559817498e-09
262 1.0300234914015301e-09 -8.778921219114374e-11 5.093496953770696e-09
265 5.346008152988973e-09 1.3329742399404168e-09 1.5975173286725287e-09
167 6.430207701794528e-09 -1.117263328832997e-09 1.3342908169414274e-09
172 2.855852185920163e-09 -2.8558533091055877e-09 -1.3350235867524092e-09
266 8.183390548585886e-09 -7.494163420528556e-10 -3.752540399921506e-09
269 5.039544395852519e-09 -3.1655955909149146e-09 -7.494796744201616e-10
171 3.8293450189023387e-10 -3.8293425614214584e-10 -4.855416657913815e-09
270 3.1655939431979156e-09 -5.0395422475222024e-09 -7.494777059679474e-10
175 -4.0518778260932993e-10 1.7060876698020762e-09 6.955817292656565e-10
176 1.7060921319922556e-09 -4.051866811660881e-10 6.955817577066129e-10
273 -3.9526529897101595e-09 -3.952655166706703e-09 6.8212564478673425e-09
274 -4.4965266424254725e-09 -4.49652724644332e-09 2.6534409203498666e-09
179 -1.6692382086682824e-09 -8.517738259581097e-10 4.918883070361307e-09
180 -5.244193197781288e-09 3.3635370752788976e-09 3.4204694471002196e-09
277 -6.664021622846816e-09 1.1541634244375215e-09 -4.3662476578311444e-10
278 2.3337221280161815e-10 2.62561801308316e-09 3.644687264862177e-09
183 -6.624848831765009e-10 -1.1362517215956443e-09 -1.318419119560401e-09
184 4.460702324834464e-09 6.133818486311409e-11 2.0350611494812305e-09
188 -1.274596186383874e-09 1.2745957398076588e-09 -6.389101410899566e-09
281 5.401420833138964e-09 4.732251414917256e-09 4.962804334968935e-10
282 -1.0900633960309425e-09 3.175456629513923e-09 -4.373132920398949e-09
285 8.380667326719497e-10 2.018351816729065e-09 4.773984834434783e-09
187 3.0733720123482886e-09 -3.0733762118996057e-09 -8.061452799123381e-09
192 1.2520761968648412e-09 -3.688319592478753e-09 -3.1266142270829375e-09
286 -2.018349785955446e-09 -8.380650069541882e-10 4.773983132089829e-09
289 7.494187460289887e-10 -8.183390926780408e-09 -3.752542019537693e-09
191 1.1172651322090229e-09 -6.430207695901145e-09 1.334292937268631e-09
290 -1.3329774862112327e-09 -5.346006402869709e-09 1.5975146093362238e-09
195 3.363535899491815e-09 -5.244192012508198e-09 3.4204676275628474e-09
196 -8.517735891086423e-10 -1.6692399321685816e-09 4.918884674542354e-09
293 1.1541636171016376e-09 -6.6640218729351455e-09 -4.3662717205468586e-10
294 2.625615769369003e-09 2.333682029516216e-10 3.644686302474073e-09
199 2.73155794069704e-09 5.633448521662841e-09 -1.0664641283417025e-09
200 5.633449364731693e-09 2.731554334604106e-09 -1.0664657108283408e-09
297 4.222928797266572e-10 4.2229054305798247e-10 6.3377106257342355e-09
298 5.5524385029498525e-09 5.552444007002294e-09 4.5274206509040016e-09
208 -1.900346987094925e-09 -3.192421803849372e-09 3.40599990647597e-16
223 -3.1924238080912706e-09 -1.900348893792459e-09 -6.0171854848116e-16
301 5.613016367765196e-09 5.613016293040008e-09 3.157158147593471e-09
302 -5.613018202148031e-09 -5.6130166208666375e-09 3.1571538376374784e-09
303 4.694155352926681e-10 -4.69417788498129e-10 -2.5273148065212553e-09
304 -4.694179264986774e-10 4.694154087419467e-10 -2.5273149330719766e-09
305 -3.1754550431102383e-09 1.090065369920883e-09 4.373136599710514e-09
308 -6.133646256805996e-11 -4.460700740320448e-09 -2.035065617926936e-09
321 1.0900625403070178e-09 -3.175456800960019e-09 4.373136604230183e-09
323 -4.460701211188117e-09 -6.133636125215513e-11 -2.0350653613604144e-09
325 -5.552443067513844e-09 -5.552443965722654e-09 -4.527420127526376e-09
207 -3.6291903679336893e-09 -4.237977734868838e-09 -1.8452606424330015e-16
212 -2.3112313359330506e-09 -5.70236455648371e-10 2.036369651096164e-16
227 -3.250571903392068e-09 1.960941851507967e-09 -1.9005559631634035e-16
306 -4.732256024529631e-09 -5.401420121047738e-09 -4.962787303456961e-10
307 1.1362500523313685e-09 6.624827836397729e-10 1.3184161022296325e-09
309 8.77912592997158e-11 -1.030026403273364e-09 -5.093497939058455e-09
312 1.0777199959923042e-09 -4.97880883106112e-09 -3.509015839901986e-09
327 -5.633446157834629e-09 -2.73155634290944e-09 1.0664629886207515e-09
329 -2.6256204080655644e-09 -2.3337038200626927e-10 -3.644685921294627e-09
211 -1.870416883626641e-09 -3.083065339780493e-09 -2.6903798238729883e-17
231 -1.3437027197196287e-09 -1.729655711159106e-09 -3.791972544345718e-16
310 -3.969528010082148e-10 7.408684667138419e-10 -4.409669699729932e-09
311 2.0301677933923253e-09 1.9820635020260642e-10 -3.788688762916896e-09
331 8.517750771602843e-10 1.6692387033883844e-09 -4.91888196713668e-09
215 2.3112339286880324e-09 5.702371259823156e-10 2.0765540953855856e-15
216 1.870412121776172e-09 3.0830694713602308e-09 -1.2641183561274244e-16
235 3.5400810629172125e-10 7.110879828870572e-09 -1.8914048112119587e-16
313 3.9695406269636633e-10 -7.408707615002541e-10 -4.4096687063067705e-09
314 -8.77890262153134e-11 1.0300246628996355e-09 -5.093496747372496e-09
315 -1.077718382717189e-09 4.978807769792906e-09 -3.509018050770078e-09
316 -2.030168704387001e-09 -1.982054366269234e-10 -3.788689344221608e-09
333 1.332974435202717e-09 5.346007180874165e-09 -1.5975160642593349e-09
335 -1.2520753565570351e-09 3.688322624733844e-09 3.126611404525758e-09
204 2.0271574290057336e-10 -2.0271156431628175e-10 -9.449120520966038e-16
219 1.9003462663584367e-09 3.192422781222561e-09 -1.4438834673619023e-15
220 3.6291910015888757e-09 4.23797681276287e-09 -1.0324053037316647e-15
239 -2.0026913949373993e-09 2.0026899070624906e-09 -5.96596257382422e-16
317 4.732252244427102e-09 5.401420784477198e-09 -4.962781947543721e-10
318 3.175456874781273e-09 -1.0900632857510284e-09 4.37313678320906e-09
319 6.133880676951573e-11 4.460702327244953e-09 -2.0350654305113442e-09
320 -1.1362521621126788e-09 -6.624850043036198e-10 1.31841608474056e-09
337 2.0183512988391874e-09 8.38065619827156e-10 -4.773982028688064e-09
339 1.2745979642131792e-09 -1.274595581254388e-09 6.3890973697290895e-09
224 -4.2379771628865316e-09 -3.62919063850883e-09 -6.458947782166683e-16
228 1.9609407861526312e-09 -3.2505710345964145e-09 -1.0120514939958018e-15
243 -5.702349563236352e-10 -2.3112335845576394e-09 -1.4471296251859645e-15
322 -5.401420452281555e-09 -4.732257121149539e-09 -4.962792671210792e-10
324 6.624814675122718e-10 1.1362526851889933e-09 1.3184158876960288e-09
328 -2.731555069586967e-09 -5.633447763755719e-09 1.0664630523816236e-09
341 -1.0300280375855359e-09 8.77905870743369e-11 -5.093496032360921e-09
343 -4.9788098675717895e-09 1.0777191975592986e-09 -3.509015760054507e-09
345 -2.3336854549542284e-10 -2.625619430611898e-09 -3.6446862348895975e-09
244 -3.0830652481818755e-09 -1.8704158420501766e-09 4.302724522939892e-16
248 -1.729653533314411e-09 -1.3437038492249616e-09 -4.626581142258194e-16
342 7.408678592703798e-10 -3.9694784913128013e-10 -4.409668033478769e-09
344 1.9820449292011627e-10 2.030169415717959e-09 -3.788690035655579e-09
348 1.669238221982473e-09 8.517752171309419e-10 -4.918882875033352e-09
232 -2.744265009335043e-09 4.358264532403541e-09 -9.878159480366766e-16
247 4.358263577120988e-09 -2.7442643922343204e-09 3.232010319694964e-16
326 -4.2229269240680657e-10 -4.222921614006584e-10 -6.337707731639764e-09
332 -3.3635380538312904e-09 5.244193343427103e-09 -3.420467767850301e-09
347 5.244192730266365e-09 -3.3635391382110177e-09 -3.420467892228286e-09
349 4.496528920781396e-09 4.496530036858476e-09 -2.6534376489483986e-09
251 7.354490758694843e-10 9.264413051608427e-09 -1.7047625062987296e-16
330 -1.154160754217303e-09 6.664023470186035e-09 4.3662490739939776e-10
351 -1.7060920242850437e-09 4.051876863376017e-10 -6.955827090356529e-10
346 6.664021673768416e-09 -1.154165789730764e-09 4.366234116903969e-10
352 4.0519098497060683e-10 -1.7060914709981578e-09 -6.955825875789747e-10
350 3.952649958541901e-09 3.952656125177761e-09 -6.821257831488561e-09
236 1.4144836258552845e-09 1.1737416587121706e-09 -1.8072318682142e-16
255 -7.471684279256601e-11 7.471900654908543e-11 -6.06771985253318e-16
334 -7.494162031201256e-10 8.18339165410749e-09 3.752543120547016e-09
336 -1.1172644369741945e-09 6.43020569835533e-09 -1.334291947844905e-09
353 -3.1655971895913976e-09 5.039539782174796e-09 7.494775049792256e-10
355 -2.855852467492092e-09 2.8558513010362673e-09 1.3350233432234836e-09
256 -8.03662572031837e-09 8.036628703577166e-09 6.577200674328954e-16
354 -5.039541969393095e-09 3.1655987100888824e-09 7.494777870065473e-10
356 -3.8293302165980826e-10 3.8293594520351166e-10 4.8554184124774195e-09
240 -4.591280957292404e-09 4.59128177444849e-09 -1.0184319949255487e-16
259 -7.110881368640775e-09 -3.540092369009496e-10 8.075141261539854e-16
338 -8.38064133151589e-10 -2.0183488744889416e-09 -4.773981435104919e-09
340 -3.0733752173465264e-09 3.07337475144402e-09 8.061450681206668e-09
357 -8.183389963187058e-09 7.494173289060201e-10 3.75254151875841e-09
359 -3.6883210044232286e-09 1.2520730328331623e-09 3.1266099550921613e-09
260 -1.1737418915757376e-09 -1.4144863768973604e-09 1.3393284666994273e-16
358 -5.346006928959136e-09 -1.3329772348847016e-09 -1.5975157645635222e-09
360 -6.430204428730243e-09 1.1172666897698063e-09 -1.3342928707989003e-09
263 3.0830678370480592e-09 1.8704157245387923e-09 -1.2798665764631583e-17
264 5.702368196323503e-10 2.311235540067594e-09 -2.117615402466496e-15
268 7.110882826229196e-09 3.54008119886037e-10 -5.511441628603714e-16
361 -7.408670059569449e-10 3.9694933391774847e-10 -4.409667849678912e-09
362 1.0300254053305336e-09 -8.779018843956492e-11 -5.093491757055721e-09
363 -1.9820620798370063e-10 -2.0301673890985514e-09 -3.788695213500937e-09
364 4.978813104859764e-09 -1.0777154468369694e-09 -3.5090199007489102e-09
365 5.346006419008692e-09 1.3329749442245722e-09 -1.597516651616754e-09
368 3.6883234822891757e-09 -1.2520750565277324e-09 3.1266112079131114e-09
267 1.173738774881114e-09 1.4144886360114657e-09 4.073775059583617e-16
272 7.472167602546437e-11 -7.472283801057815e-11 1.073933290137173e-16
366 8.183389756186236e-09 -7.494201961837904e-10 3.752541311456276e-09
367 6.430203470079843e-09 -1.11726199537975e-09 -1.3342882798419274e-09
369 5.039545180040109e-09 -3.1655969492259895e-09 7.494749516677685e-10
372 2.85585325116719e-09 -2.8558528564996166e-09 1.3350260668464117e-09
271 8.036623688659387e-09 -8.036626249579854e-09 1.2835576391666607e-15
370 3.1655944736528324e-09 -5.03954243913732e-09 7.494762828608317e-10
371 3.829344939691093e-10 -3.8293512913704e-10 4.855416697225515e-09
275 -9.264414653293188e-09 -7.354487984924779e-10 1.682458412474951e-17
276 -7.354487411258107e-10 -9.264412681651311e-09 2.427627005655556e-16
373 -3.95265297107385e-09 -3.952655075710709e-09 -6.821256349037255e-09
374 -4.496531330990256e-09 -4.4965272195983716e-09 -2.6534413605002666e-09
375 -4.0518935177000777e-10 1.7060874553379153e-09 -6.955835948156609e-10
376 1.7060921138330577e-09 -4.0518644622453285e-10 -6.955839757434024e-10
279 1.7296506352322743e-09 1.34370593328359e-09 -1.3498743601380054e-16
280 -4.358264105017645e-09 2.7442661123007304e-09 -2.98298128691211e-16
377 -6.66402141765386e-09 1.1541615496789794e-09 4.3662409144855684e-10
378 2.3336782028634537e-10 2.625623552238361e-09 -3.6446866815236144e-09
379 -1.6692402889210911e-09 -8.517799341395893e-10 -4.918877821519487e-09
380 -5.24419124792092e-09 3.363542289771236e-09 -3.420468257154019e-09
203 -2.0271377142112282e-10 2.027085319199513e-10 -1.8018412217913555e-15
283 4.23797689291166e-09 3.6291914339705066e-09 -1.7641396527484385e-15
284 3.192425461687362e-09 1.9003489420022575e-09 -9.280386225948787e-17
288 2.0026894552133286e-09 -2.0026922635247245e-09 -1.5350936756352478e-15
381 5.4014176609342174e-09 4.732252276366094e-09 -4.962782390471246e-10
382 -1.0900648133990208e-09 3.1754582699276474e-09 4.3731346903011795e-09
383 -6.624859678969689e-10 -1.1362524995812688e-09 1.3184206904465564e-09
384 4.460702015086508e-09 6.133891042058267e-11 -2.0350652412878846e-09
385 8.380663218576125e-10 2.0183483559983937e-09 -4.773983387997233e-09
388 -1.27459437113901e-09 1.2745966698136318e-09 6.389102951890585e-09
287 4.5912778807263175e-09 -4.591280278438178e-09 -1.1981264863378932e-15
292 -3.54007953545239e-10 -7.110878690586464e-09 3.7362593896676937e-16
386 -2.0183491179484245e-09 -8.380649209298289e-10 -4.77398186507606e-09
387 3.0733739801778716e-09 -3.0733711552084218e-09 8.061451291293664e-09
389 7.494185031003867e-10 -8.183388853156445e-09 3.752542256368328e-09
392 1.2520758006501118e-09 -3.688323606795453e-09 3.1266136215238477e-09
291 -1.4144863340040576e-09 -1.1737401632544588e-09 2.61801804612703e-16
390 -1.3329778658633964e-09 -5.346006880448026e-09 -1.5975173259583736e-09
391 1.1172647867209636e-09 -6.4302067557604974e-09 -1.3342879393790569e-09
295 2.7442658973245757e-09 -4.35826569160553e-09 -1.016482299336151e-15
296 1.343705812656474e-09 1.7296544257276874e-09 2.4586997273942243e-16
393 1.154164200447345e-09 -6.664022916074663e-09 4.366289461752735e-10
394 2.625616482874022e-09 2.333734936757041e-10 -3.644684996289843e-09
395 3.363536106695081e-09 -5.244194215015689e-09 -3.420468026818829e-09
396 -8.517733377681686e-10 -1.6692398632089137e-09 -4.918883825690916e-09
299 -1.9609434159971435e-09 3.250569629280786e-09 6.363693412079169e-16
300 3.2505741995696907e-09 -1.960942544605034e-09 -1.1238909293113304e-15
397 4.222952203123781e-10 4.222889584621655e-10 -6.337708930255881e-09
398 5.552445389116957e-09 5.552442667372516e-09 -4.527420343867847e-09
399 2.731557868382342e-09 5.633444262327137e-09 1.0664619058699882e-09
400 5.633447145875714e-09 2.7315595424675973e-09 1.0664637165649816e-09
401 -4.0414904730725734e-10 -4.041489412457005e-10 6.816796872162112e-09
402 4.041485603882917e-10 4.041499524462256e-10 6.816801702783929e-09
403 1.6513257712295995e-09 -1.6513217966330182e-09 8.715872290867482e-10
404 -1.6513226592871013e-09 1.6513250137331393e-09 8.715872311959268e-10
405 1.1706053531163503e-09 -5.514340957299196e-09 8.707834850672407e-09
408 -3.964142751010723e-09 1.4675316134322916e-09 1.9708857063872826e-09
421 -5.514339057535351e-09 1.1706035050991809e-09 8.707835434814859e-09
423 1.4675312991917382e-09 -3.964142711105815e-09 1.9708852789260876e-09
425 3.013587665660145e-09 3.0135874053472418e-09 9.84783762933753e-10
406 -1.2290383593156448e-09 -2.9469469742067887e-09 -2.5817052145681285e-10
407 5.275593877898616e-09 -3.7554623576149566e-09 4.184972921536165e-10
409 -1.2315264297399665e-09 1.3590885591314888e-09 -2.207115251979862e-09
412 4.3046837616212544e-09 -3.975051754192819e-09 -9.667392169289599e-11
427 -2.8669573161602796e-09 1.520603177481819e-09 -3.867972969498507e-09
429 2.4196755050760297e-09 -4.760566294318589e-09 -3.8602733213782296e-09
410 -2.2178200872293568e-09 -6.97764717355082e-10 -5.2428687796260276e-09
411 2.908116912432737e-09 4.500745062936826e-09 -1.8303315615643813e-10
431 -2.9654764690294146e-09 -4.726849189046919e-09 -6.471920782607742e-10
413 2.217822188442717e-09 6.977657249398723e-10 -5.242868074859034e-09
414 1.231526255226616e-09 -1.3590900661548075e-09 -2.207111502629911e-09
415 -4.304686871278024e-09 3.9750495871947405e-09 -9.667495356771429e-11
416 -2.9081145830573244e-09 -4.500742433092313e-09 -1.8303476267264788e-10
433 -7.96382215166205e-09 9.458695856905352e-10 -1.6157289282899047e-09
435 -2.4028696968681973e-09 -1.6051628261088293e-09 5.170292346089988e-09
417 1.2290399222994421e-09 2.9469464649907913e-09 -2.5817176858403975e-10
418 -1.1706062000269214e-09 5.5143408720316455e-09 8.707831927552012e-09
419 3.964143086840934e-09 -1.4675302096502903e-09 1.9708876975514198e-09
420 -5.275592338047518e-09 3.755465416526676e-09 4.1849661962692633e-10
437 -3.4307071009470175e-09 7.207281892867255e-10 1.9988243565258223e-09
439 -1.289078460595368e-09 1.2890745043834802e-09 -2.962566406886606e-09
422 -2.946948598877001e-09 -1.2290382415853394e-09 -2.581699296815353e-10
424 -3.755459616887908e-09 5.275597043926482e-09 4.1849688357557356e-10
428 1.520603744460123e-09 -2.8669579622444808e-09 -3.867972030092447e-09
441 1.3590934765309436e-09 -1.231526452639621e-09 -2.207110895621938e-09
443 -3.975054236997445e-09 4.30468359077778e-09 -9.667598706846203e-11
445 -4.760564837563482e-09 2.4196785716052744e-09 -3.8602724718711065e-09
442 -6.977645775466662e-10 -2.217822183621737e-09 -5.242863568448113e-09
444 4.500743793211255e-09 2.9081157170062816e-09 -1.8303579684815515e-10
448 -4.726849006527635e-09 -2.965480396058249e-09 -6.471966336371268e-10
426 -3.856087233051468e-09 -3.856087332860081e-09 -8.184580215506732e-09
432 -3.27102699775846e-09 -4.578825071946623e-09 1.97211346054843e-09
447 -4.578825869353876e-09 -3.271026193607318e-09 1.972112189675288e-09
449 -5.019994685678725e-09 -5.019993135010196e-09 -8.91457168087226e-09
430 3.0189701061396935e-09 -1.8681080142848044e-09 -5.035900573930642e-09
451 -1.9681433466320572e-09 -1.6327607701757442e-09 3.3919164348903555e-09
446 -1.86810731644797e-09 3.018967209634733e-09 -5.035899747735219e-09
452 -1.6327605545694564e-09 -1.9681434580465967e-09 3.391916094921824e-09
450 -2.912830835679025e-09 -2.9128311987590704e-09 5.194800151392351e-09
434 -7.127810760801718e-09 -2.317459493510299e-09 -8.628135274824988e-10
436 -6.001047140884432e-09 -2.41692233677165e-09 2.5175618790988105e-09
453 -2.11233789935929e-09 -1.4067534489833849e-09 -2.7758515145135114e-09
455 -4.29885227576089e-09 4.298849374736261e-09 6.141078912409444e-09
454 1.406750478261699e-09 2.112337901613251e-09 -2.7758520678927913e-09
456 -1.6759957781619173e-10 1.675980552327778e-10 1.3277650789300279e-09
438 -7.207298502272782e-10 3.4307068023475777e-09 1.998819029644391e-09
440 -2.399315074678877e-09 2.3993133960739526e-09 5.675117927670754e-09
457 2.317460563643654e-09 7.127809564473683e-09 -8.628135371091576e-10
459 1.6051628055255052e-09 2.402869379742824e-09 5.170293789827508e-09
458 -9.458678884890577e-10 7.963825045407487e-09 -1.6157299784678637e-09
460 2.4169229141734396e-09 6.001048452583963e-09 2.5175638540933625e-09
461 6.977617620944293e-10 2.2178208643304677e-09 -5.2428666463424405e-09
462 -1.3590910853249342e-09 1.2315265098887566e-09 -2.2071098874345254e-09
463 -4.500743874565291e-09 -2.9081140778731302e-09 -1.8303441582574546e-10
464 3.975051837957344e-09 -4.30468701367348e-09 -9.667543209081983e-11
465 9.458714031905256e-10 -7.963820394059131e-09 -1.615729134792269e-09
468 -1.6051620225541211e-09 -2.402870439159621e-09 5.170292906019845e-09
466 -2.3174613828221466e-09 -7.127812607166383e-09 -8.628139074942352e-10
467 -2.416925124291393e-09 -6.001047368633814e-09 2.517563070684136e-09
469 -1.4067540414810443e-09 -2.1123380849263435e-09 -2.7758529993753072e-09
472 4.298851137761848e-09 -4.298847361833577e-09 6.141075842634042e-09
470 2.112334216878075e-09 1.4067578070314764e-09 -2.7758534450787795e-09
471 1.6759774901581304e-10 -1.6760116106430728e-10 1.327771242870565e-09
473 2.9128344686243e-09 2.912827630631353e-09 5.1948037134938435e-09
474 5.019991708970004e-09 5.019995459929094e-09 -8.91456592588052e-09
475 1.632758538944818e-09 1.968145637300745e-09 3.3919106453255225e-09
476 1.968148389075677e-09 1.6327624602304956e-09 3.3919164686372148e-09
477 1.8681107565184098e-09 -3.0189685378146836e-09 -5.035899780879455e-09
478 4.7605644975054985e-09 -2.4196804020369312e-09 -3.860268295100002e-09
479 4.726849256898445e-09 2.965480426165833e-09 -6.471978778483435e-10
480 4.578824648742039e-09 3.2710276356829178e-09 1.972112004670186e-09
481 2.9469498860786227e-09 1.2290383722414263e-09 -2.581744505553968e-10
482 5.514338932189875e-09 -1.1706069171476752e-09 8.70783046046758e-09
483 3.755462808376573e-09 -5.2755949064245376e-09 4.1849312863488693e-10
484 -1.4675339365690316e-09 3.964139430127711e-09 1.97088693282349e-09
485 7.20728010034785e-10 -3.4307063899225754e-09 1.9988194034080385e-09
488 1.2890768765974656e-09 -1.2890767746683453e-09 -2.9625650222166825e-09
486 3.430706855077045e-09 -7.207283472868076e-10 1.9988185752670394e-09
487 2.399315071460452e-09 -2.399315017429741e-09 5.675119619834685e-09
489 7.127814676140618e-09 2.3174610608825295e-09 -8.62813285589599e-10
492 2.4028685402897065e-09 1.6051596517007445e-09 5.170292723487025e-09
490 7.963818131378509e-09 -9.458713824942096e-10 -1.6157336737489246e-09
491 6.001044208295289e-09 2.4169214546217877e-09 2.5175625222976767e-09
493 -3.018968327450592e-09 1.8681072408188486e-09 -5.035901286569391e-09
494 -2.4196774284386643e-09 4.760566417855322e-09 -3.860269736378186e-09
495 3.2710260361133444e-09 4.5788197142937815e-09 1.9721120001768946e-09
496 2.965480322352929e-09 4.726850786806271e-09 -6.471935326389356e-10
497 3.856087109588451e-09 3.8560872334273715e-09 -8.18458000639673e-09
498 -3.013589531346394e-09 -3.013588937763249e-09 9.847847952177155e-10
499 -1.5206032005839168e-09 2.8669615526180306e-09 -3.867972685534437e-09
500 2.8669580357132243e-09 -1.5206027317436257e-09 -3.867974301767934e-09
