LAMMPS data file via write_data, version 29 Aug 2024, timestep = 28, units = metal

500 atoms
3 atom types

0 17.552426997391684 xlo xhi
0 17.552426997391684 ylo yhi
0 17.552426997391684 zlo zhi

Masses

1 56.7942
2 55.845
3 55.845

Atoms # atomic

2 3 1.7557276712047372 1.7557276712047354 1.4509496052676128e-16 0 0 0
3 1 1.7541047945213357 0.001137905217833919 1.752879437886973 0 0 0
4 1 0.001137905217832113 1.7541047945213346 1.7528794378869736 0 0 0
5 1 3.5060217593632013 0.0011342565390761912 7.222595626334167e-16 0 0 0
8 1 3.510522105278602 1.7560475738926473 1.7551938210620543 0 0 0
21 1 0.0011342565390743398 3.5060217593632035 5.825175273008172e-16 0 0 0
23 1 1.7560475738926484 3.5105221052786035 1.7551938210620548 0 0 0
25 1 3.5073284906367905 3.5073284906367928 5.85943272094738e-16 0 0 0
102 1 1.755911545367251 1.7559115453672498 3.507543804986721 0 0 0
125 1 3.5116170980398853 3.511617098039887 3.5116591639633676 0 0 0
6 1 5.261573082132014 1.7548160991147397 9.78747882980879e-16 0 0 0
9 1 7.020284741289276 0.000536096031702893 4.559585163490606e-16 0 0 0
12 1 7.020119961543465 1.7551671736531163 1.7546464471229102 0 0 0
27 1 5.266299012744205 3.511203965275266 1.7556607057307057 0 0 0
29 1 7.020207551004393 3.5097385110053687 3.6932982412976145e-16 0 0 0
106 1 5.262974193687908 1.7549446710929044 3.507936932158832 0 0 0
109 1 7.020575713343266 0.00031647466123226156 3.5101704726742575 0 0 0
129 1 7.020564986482815 3.510045094454747 3.5103352196476623 0 0 0
10 1 8.776163410212225 1.7551795614105798 1.3916730680399475e-15 0 0 0
11 1 8.775979255471112 0.00010505194674280014 1.7550701607808725 0 0 0
31 1 8.77599261293523 3.510251191194528 1.7550998621501626 0 0 0
110 1 8.776059942071651 1.755196517523236 3.5100682123880165 0 0 0
13 1 10.531506286918631 6.313832858986025e-05 4.3429277403837195e-16 0 0 0
14 1 12.287384955841576 1.7547066037074628 3.0871276012909794e-19 0 0 0
15 1 12.287549735587389 7.552608605350724e-05 1.75464644712291 0 0 0
16 1 10.531690441659741 1.755137647792427 1.7550701607808712 0 0 0
33 1 10.531623800379796 3.51012678922211 1.1068191757564104e-16 0 0 0
35 1 12.287187962796162 3.510330082293112 1.7548160664264165 0 0 0
113 1 10.531609755059204 4.618221593343837e-05 3.510068212388017 0 0 0
114 1 12.287093983787589 1.7549262250779352 3.5101704726742597 0 0 0
133 1 10.531669058315519 3.510285619548969 3.5101899903357396 0 0 0
121 1 17.55177372228123 3.508487261083033 3.50853473770499 -1 0 0
17 1 14.046096614998836 0.00042660062442719156 0 0 0 0
18 1 15.801647937767653 1.7541084432000948 1.2659320774525877e-15 0 0 0
20 1 14.041840409738988 1.755875811165911 1.7554116026665159 0 0 0
37 1 14.045219947557593 3.5073109335194435 4.534037351712583e-19 0 0 0
39 1 15.79595565734561 3.5117140397852458 1.7564720256816628 0 0 0
117 1 14.044695503442947 0.00029802864626789303 3.507936932158833 0 0 0
118 1 15.799182436047822 1.755895974849622 3.508534737704991 0 0 0
137 1 14.041840739160518 3.510534808521842 3.5107980493330726 0 0 0
22 1 1.7548160991147397 5.2615730821320135 2.1100882324200068e-19 0 0 0
28 1 3.5112039652752656 5.266299012744203 1.7556607057307065 0 0 0
41 1 0.0005360960317048825 7.020284741289279 6.85948588283106e-16 0 0 0
43 1 1.7551671736531167 7.020119961543469 1.7546464471229093 0 0 0
45 1 3.509738511005368 7.020207551004396 1.4145842891270976e-19 0 0 0
122 1 1.7549446710929058 5.2629741936879055 3.507936932158833 0 0 0
141 1 0.0003164746612308216 7.020575713343268 3.5101704726742606 0 0 0
145 1 3.510045094454748 7.020564986482817 3.510335219647663 0 0 0
42 1 1.7551795614105803 8.776163410212222 9.210189793380233e-16 0 0 0
44 1 0.00010505194674120896 8.77597925547111 1.7550701607808725 0 0 0
48 1 3.5102511911945276 8.775992612935228 1.7550998621501623 0 0 0
142 1 1.7551965175232354 8.776059942071651 3.5100682123880174 0 0 0
26 1 5.262467254453185 5.262467254453184 2.1014479473659567e-16 0 0 0
32 1 7.0206760340363905 5.2656131164547215 1.7548051198505479 0 0 0
47 1 5.265613116454721 7.020676034036391 1.7548051198505477 0 0 0
49 1 7.0199506220090875 7.019950622009089 1.2049465523700936e-15 0 0 0
126 1 5.2662177410066455 5.2662177410066455 3.5108436144032553 0 0 0
149 1 7.021035109243714 7.021035109243715 3.510299072932343 0 0 0
30 1 8.776073845812178 5.265258893348898 9.632159489130063e-16 0 0 0
51 1 8.776136752844911 7.020789316521409 1.754965354737699 0 0 0
130 1 8.776035094366092 5.2654680894217245 3.5102217547016874 0 0 0
46 1 5.265258893348898 8.776073845812176 5.364185884999199e-16 0 0 0
52 1 7.020789316521409 8.77613675284491 1.7549653547376993 0 0 0
146 1 5.265468089421725 8.776035094366089 3.510221754701688 0 0 0
50 1 8.77595843973086 8.775958439730859 2.6877101493414855e-19 0 0 0
34 1 12.287698493984918 5.264611674912902 5.310273040297561e-16 0 0 0
36 1 10.531575709890094 5.265454807154721 1.7550435581852017 0 0 0
53 1 10.531748675095189 7.020486801836176 0 0 0 0
55 1 12.286957040479168 7.020712656651686 1.7549413909358929 0 0 0
134 1 12.286892203331814 5.265596667744177 3.510231351246709 0 0 0
153 1 10.531484397292738 7.020833478016138 3.510234585206626 0 0 0
54 1 12.287182895294679 8.775921022035664 1.894186793825386e-16 0 0 0
56 1 10.531540646337275 8.77612905079358 1.754969778461624 0 0 0
154 1 12.286836219114717 8.776185299838117 3.510234585206626 0 0 0
24 1 17.55179388596494 5.265829287391862 1.7554116026665132 -1 0 0
38 1 15.800358763611413 5.2624497495732605 1.734044574421634e-18 0 0 0
40 1 14.042291712075185 5.265377985055667 1.754585806886244 0 0 0
57 1 14.04305802221795 7.019971203145937 1.138150942626844e-18 0 0 0
59 1 15.797339614837743 7.020481734334692 1.7548160664264172 0 0 0
138 1 15.797134888609014 5.265828957970334 3.510798049333073 0 0 0
157 1 14.042073029386678 7.0207774937990415 3.510231351246708 0 0 0
58 1 15.797542907908742 8.776045896751056 1.5167892206314527e-15 0 0 0
60 1 14.042214889976131 8.776093987240762 1.755043558185203 0 0 0
158 1 15.797384077581885 8.776000638815333 3.510189990335738 0 0 0
61 1 6.313832858945974e-05 10.531506286918631 7.409696439470183e-16 0 0 0
62 1 1.754706603707465 12.287384955841574 5.387482324543746e-16 0 0 0
63 1 1.7551376477924274 10.531690441659743 1.7550701607808739 0 0 0
64 1 7.552608605336975e-05 12.287549735587385 1.7546464471229106 0 0 0
65 1 3.510126789222111 10.531623800379798 6.099516969079315e-16 0 0 0
68 1 3.5103300822931125 12.28718796279616 1.754816066426417 0 0 0
161 1 4.618221593545891e-05 10.531609755059204 3.510068212388018 0 0 0
162 1 1.7549262250779374 12.287093983787583 3.510170472674259 0 0 0
165 1 3.5102856195489673 10.53166905831552 3.510189990335739 0 0 0
66 1 5.264611674912902 12.287698493984916 1.744653956590087e-19 0 0 0
67 1 5.265454807154721 10.531575709890094 1.7550435581852006 0 0 0
69 1 7.020486801836176 10.53174867509519 1.1693896790117342e-18 0 0 0
72 1 7.020712656651688 12.286957040479166 1.7549413909358929 0 0 0
166 1 5.265596667744175 12.286892203331812 3.5102313512467105 0 0 0
169 1 7.02083347801614 10.531484397292738 3.510234585206626 0 0 0
70 1 8.775921022035664 12.287182895294679 9.554707079545562e-16 0 0 0
71 1 8.77612905079358 10.531540646337273 1.7549697784616258 0 0 0
170 1 8.776185299838115 12.286836219114713 3.510234585206625 0 0 0
73 1 10.531711257399994 10.531711257399992 5.230276622748432e-16 0 0 0
74 1 12.287719075121766 12.287719075121766 2.1081749507730106e-18 0 0 0
75 1 12.286880380609444 10.531532944285942 1.7549653547376998 0 0 0
76 1 10.531532944285942 12.286880380609444 1.7549653547377 0 0 0
150 1 8.776216569953469 8.776216569953467 3.5102433813535128 0 0 0
173 1 10.531453127177384 10.531453127177384 3.5102433813535128 0 0 0
174 1 12.286634587887137 12.286634587887137 3.510299072932343 0 0 0
77 1 14.042410803781957 10.531595851318677 2.0198947777597774e-16 0 0 0
78 1 15.797931186125485 12.28746214612646 3.5783356783854216e-16 0 0 0
79 1 15.797418505936324 10.531677084195625 1.7550998621501626 0 0 0
80 1 14.042056580676132 12.286993663094464 1.7548051198505474 0 0 0
177 1 14.042201607709128 10.531634602764763 3.510221754701688 0 0 0
178 1 15.797624602676107 12.287104710648041 3.5103352196476645 0 0 0
105 1 3.508487261083031 17.55177372228123 3.5085347377049927 0 -1 0
81 1 0.00042660062442882767 14.04609661499884 5.746950516368467e-16 0 0 0
82 1 1.754108443200094 15.801647937767653 0 0 0 0
83 1 1.7558758111659125 14.04184040973899 1.755411602666513 0 0 0
85 1 3.507310933519441 14.045219947557593 0 0 0 0
88 1 3.511714039785245 15.795955657345607 1.756472025681664 0 0 0
181 1 0.0002980286462615157 14.04469550344295 3.5079369321588323 0 0 0
182 1 1.7558959748496235 15.799182436047822 3.5085347377049927 0 0 0
185 1 3.510534808521844 14.04184073916052 3.5107980493330713 0 0 0
7 1 5.265829287391865 17.55179388596494 1.755411602666514 0 -1 0
86 1 5.262449749573263 15.800358763611413 2.4686859140192407e-16 0 0 0
87 1 5.265377985055667 14.042291712075189 1.7545858068862439 0 0 0
89 1 7.019971203145938 14.043058022217952 5.304691084226616e-19 0 0 0
92 1 7.0204817343346875 15.797339614837743 1.7548160664264167 0 0 0
186 1 5.265828957970334 15.797134888609012 3.5107980493330704 0 0 0
189 1 7.020777493799041 14.042073029386678 3.5102313512467096 0 0 0
90 1 8.776045896751057 15.797542907908742 1.0418548626863209e-16 0 0 0
91 1 8.776093987240762 14.042214889976133 1.7550435581852022 0 0 0
190 1 8.776000638815336 15.797384077581885 3.5101899903357396 0 0 0
93 1 10.531595851318674 14.042410803781955 9.659282883128292e-17 0 0 0
94 1 12.287462146126462 15.797931186125489 9.169359627001316e-16 0 0 0
95 1 12.286993663094465 14.042056580676133 1.7548051198505485 0 0 0
96 1 10.531677084195625 15.797418505936326 1.755099862150164 0 0 0
193 1 10.531634602764765 14.04220160770913 3.5102217547016865 0 0 0
194 1 12.287104710648038 15.797624602676107 3.5103352196476627 0 0 0
1 2 17.551942025926117 17.551942025926117 3.256625472328801e-16 -1 -1 0
101 1 17.551758151763604 17.551758151763604 3.507543804986721 -1 -1 0
19 1 15.797147591852253 17.551622123238207 1.7551938210620557 0 -1 0
84 1 17.551622123238207 15.79714759185225 1.7551938210620548 -1 0 0
97 1 14.045202442677667 14.045202442677667 7.133894610068275e-16 0 0 0
98 1 15.800341206494062 15.80034120649406 9.872619517866201e-19 0 0 0
99 1 15.796465731855589 14.041370684386651 1.7556607057307072 0 0 0
100 1 14.04137068438665 15.796465731855589 1.7556607057307048 0 0 0
197 1 14.041451956124208 14.041451956124206 3.510843614403254 0 0 0
198 1 15.79605259909097 15.796052599090965 3.511659163963367 0 0 0
103 1 1.7547162296818535 0.000526470057314688 5.264439460234953 0 0 0
104 1 0.0005264700573154043 1.7547162296818533 5.2644394602349545 0 0 0
108 1 3.509926830181713 1.7549317015646966 5.2648220982554745 0 0 0
123 1 1.7549317015646984 3.509926830181713 5.264822098255474 0 0 0
201 1 9.906395254063617e-05 9.906395254211509e-05 7.02067675047525 0 0 0
202 1 1.7551436357866281 1.7551436357866284 7.020676750475252 0 0 0
205 1 3.5100901844384724 0.00011054019212887021 7.020564086348725 0 0 0
221 1 0.00011054019212716904 3.5100901844384724 7.020564086348726 0 0 0
225 1 3.5102338321956794 3.5102338321956794 7.020524193150695 0 0 0
107 1 5.264852985246237 0.00031760603849952226 5.264650224205793 0 0 0
112 1 7.020089259656216 1.755094457009016 5.264828531718278 0 0 0
127 1 5.265761785123797 3.5101026752548097 5.2655592644312135 0 0 0
206 1 5.2653141636243355 1.7550936077485912 7.020696449811163 0 0 0
209 1 7.020556228369514 0.0001486325193351232 7.0205891998372465 0 0 0
229 1 7.020853109331311 3.51021688129096 7.020877255909933 0 0 0
111 1 8.776109357974583 0.00014626345235235544 5.265406200066715 0 0 0
131 1 8.776130067447367 3.5102119177971907 5.265498830154959 0 0 0
210 1 8.775950541187834 1.7551026075005052 7.020639421711509 0 0 0
115 1 12.287580437474636 0.0001482427301525379 5.264828531718276 0 0 0
116 1 10.53156033915627 1.7550964362868164 5.265406200066715 0 0 0
135 1 12.28678784163625 3.5102395832761286 5.265629300071399 0 0 0
213 1 10.53171915594302 0.0001400922386651114 7.020639421711509 0 0 0
214 1 12.287113468761335 1.7550940672198352 7.0205891998372465 0 0 0
233 1 10.531485994133435 3.510219171596075 7.02089012478854 0 0 0
119 1 15.797742866949141 0.00031099817447362673 5.264822098255476 0 0 0
120 1 14.042816711884617 1.75492509370067 5.26465022420579 0 0 0
139 1 15.797562689838813 3.5101070072920426 5.2652150472099555 0 0 0
217 1 14.04235553350652 0.00014909199057598952 7.020696449811162 0 0 0
218 1 15.797579512692382 1.7551321595470402 7.020564086348724 0 0 0
237 1 14.042238065837576 3.510173208300835 7.02065277018243 0 0 0
219 1 15.797406730689904 4.702435697321109e-05 8.77621349869584 0 0 0
124 1 0.00031760603849578805 5.264852985246237 5.26465022420579 0 0 0
128 1 3.510102675254808 5.265761785123796 5.265559264431213 0 0 0
143 1 1.7550944570090163 7.020089259656219 5.264828531718278 0 0 0
222 1 1.7550936077485928 5.265314163624335 7.020696449811164 0 0 0
241 1 0.00014863251933462673 7.020556228369518 7.020589199837246 0 0 0
245 1 3.510216881290957 7.020853109331314 7.020877255909934 0 0 0
144 1 0.0001462634523527159 8.776109357974581 5.265406200066713 0 0 0
148 1 3.5102119177971893 8.776130067447365 5.26549883015496 0 0 0
242 1 1.7551026075005063 8.77595054118783 7.020639421711509 0 0 0
243 1 1.7551014507083482 7.020681502466529 8.77621349869584 0 0 0
132 1 7.021033971288403 5.265593838429636 5.265733417668782 0 0 0
147 1 5.265593838429636 7.021033971288405 5.2657334176687804 0 0 0
226 1 5.265523805138336 5.265523805138335 7.020779256440255 0 0 0
249 1 7.020885163190074 7.020885163190075 7.02094374731611 0 0 0
250 1 8.776185428659716 8.776185428659716 7.020903929481044 0 0 0
247 1 5.2655239005972705 7.020828687699969 8.77621349869584 0 0 0
136 1 10.531486659369724 5.265526434093411 5.265540563281568 0 0 0
151 1 8.776227575207287 7.020880198021835 5.265596231301177 0 0 0
155 1 12.28678940533723 7.020880291793625 5.2655922715136265 0 0 0
230 1 8.776228437924749 5.265527322872392 7.02094061584875 0 0 0
234 1 12.286794764843167 5.265524435541931 7.020952711972732 0 0 0
253 1 10.531508001925422 7.020850152566094 7.020906541026428 0 0 0
156 1 10.531496242605247 8.776173454525608 5.2655757576763165 0 0 0
254 1 12.286819544564759 8.776161695205431 7.020906541026427 0 0 0
140 1 14.042013364998692 5.265656332132159 5.2657904899450525 0 0 0
159 1 15.797430113854727 7.020881855494601 5.2656293000713985 0 0 0
238 1 15.79749648883002 5.265431631293274 7.020652770182428 0 0 0
257 1 14.042145261588924 7.020874932287691 7.020952711972733 0 0 0
160 1 14.04214326303744 8.77618303776113 5.265540563281569 0 0 0
258 1 15.797450525534778 8.776183702997418 7.020890124788543 0 0 0
240 1 14.042214265883556 5.265455431247297 8.77621349869584 0 0 0
163 1 1.7550964362868162 10.531560339156272 5.265406200066711 0 0 0
164 1 0.00014824273015133626 12.287580437474634 5.264828531718279 0 0 0
168 1 3.51023958327613 12.28678784163625 5.265629300071399 0 0 0
261 1 0.0001400922386610478 10.531719155943023 7.020639421711509 0 0 0
262 1 1.7550940672198354 12.287113468761337 7.020589199837248 0 0 0
265 1 3.510219171596076 10.531485994133439 7.020890124788544 0 0 0
264 1 0.00014124903081997445 12.286988194664326 8.77621349869584 0 0 0
152 1 7.020880198021835 8.776227575207285 5.265596231301176 0 0 0
167 1 5.265526434093411 10.531486659369724 5.265540563281568 0 0 0
172 1 7.020880291793625 12.28678940533723 5.265592271513627 0 0 0
246 1 5.265527322872391 8.776228437924747 7.020940615848751 0 0 0
266 1 5.265524435541929 12.286794764843163 7.020952711972732 0 0 0
269 1 7.020850152566094 10.531508001925424 7.020906541026427 0 0 0
171 1 8.776173454525608 10.531496242605247 5.265575757676316 0 0 0
270 1 8.77616169520543 12.286819544564757 7.020906541026427 0 0 0
175 1 12.286789499109018 10.531442121923568 5.265596231301177 0 0 0
176 1 10.531442121923567 12.286789499109018 5.265596231301177 0 0 0
273 1 10.531484268471138 10.531484268471138 7.020903929481043 0 0 0
274 1 12.286784533940779 12.286784533940777 7.020943747316111 0 0 0
179 1 15.797457779333666 10.53153962968349 5.26549883015496 0 0 0
180 1 14.042075858701219 12.28663572584245 5.265733417668781 0 0 0
277 1 14.042142374258463 10.531441259206105 7.02094061584875 0 0 0
278 1 15.797452815839897 12.28681658779954 7.020877255909933 0 0 0
183 1 1.7549250937006722 14.042816711884619 5.264650224205793 0 0 0
184 1 0.0003109981744745527 15.797742866949143 5.264822098255473 0 0 0
188 1 3.51010700729204 15.797562689838813 5.2652150472099555 0 0 0
281 1 0.00014909199057903925 14.042355533506516 7.020696449811164 0 0 0
282 1 1.7551321595470415 15.79757951269238 7.020564086348723 0 0 0
285 1 3.5101732083008326 14.042238065837578 7.02065277018243 0 0 0
283 1 1.7551866977184318 14.04230915074641 8.77621349869584 0 0 0
187 1 5.265656332132162 14.042013364998692 5.265790489945052 0 0 0
192 1 7.020881855494602 15.797430113854723 5.265629300071399 0 0 0
286 1 5.265431631293276 15.79749648883002 7.02065277018243 0 0 0
289 1 7.02087493228769 14.042145261588926 7.02095271197273 0 0 0
191 1 8.77618303776113 14.042143263037444 5.2655405632815695 0 0 0
290 1 8.776183702997418 15.797450525534776 7.02089012478854 0 0 0
195 1 12.286635725842448 14.04207585870122 5.265733417668783 0 0 0
196 1 10.531539629683488 15.797457779333664 5.265498830154961 0 0 0
293 1 10.531441259206106 14.042142374258464 7.02094061584875 0 0 0
294 1 12.286816587799542 15.797452815839891 7.02087725590993 0 0 0
199 1 15.797567021876045 14.041907912007057 5.265559264431212 0 0 0
200 1 14.041907912007057 15.797567021876045 5.265559264431216 0 0 0
297 1 14.042145891992519 14.04214589199252 7.020779256440256 0 0 0
298 1 15.797435864935172 15.797435864935176 7.020524193150697 0 0 0
203 1 1.7551644237755215 7.827596364797692e-05 8.776213498695842 0 0 0
204 1 7.827596364872091e-05 1.7551644237755206 8.776213498695842 0 0 0
208 1 3.5102629664409495 1.7551956753821938 8.776213498695842 0 0 0
223 1 1.7551956753821942 3.5102629664409513 8.776213498695842 0 0 0
301 1 9.906395254148639e-05 9.906395254220764e-05 10.531750246916435 0 0 0
302 1 1.7551436357866281 1.7551436357866268 10.531750246916435 0 0 0
303 1 1.7547162296818548 0.0005264700573154406 12.287987537156733 0 0 0
304 1 0.0005264700573143832 1.7547162296818533 12.28798753715673 0 0 0
305 1 3.5100901844384707 0.00011054019212575283 10.53186291104296 0 0 0
308 1 3.5099268301817115 1.7549317015646968 12.28760489913621 0 0 0
321 1 0.00011054019212551585 3.5100901844384724 10.531862911042959 0 0 0
323 1 1.7549317015646986 3.5099268301817137 12.28760489913621 0 0 0
325 1 3.5102338321956785 3.5102338321956803 10.531902804240989 0 0 0
207 1 5.2653605463844455 5.600202073679247e-05 8.776213498695842 0 0 0
212 1 7.020681502466526 1.755101450708347 8.776213498695844 0 0 0
227 1 5.26545672450546 3.5103030815491842 8.776213498695842 0 0 0
306 1 5.265314163624338 1.7550936077485921 10.531730547580523 0 0 0
307 1 5.264852985246237 0.0003176060384980678 12.287776773185893 0 0 0
309 1 7.020556228369515 0.00014863251933733683 10.531837797554438 0 0 0
312 1 7.020089259656216 1.7550944570090168 12.287598465673405 0 0 0
327 1 5.265761785123797 3.51010267525481 12.28686773296047 0 0 0
329 1 7.02085310933131 3.5102168812909578 10.53154974148175 0 0 0
211 1 8.776121667927283 0.00013959161905468162 8.776213498695842 0 0 0
231 1 8.776156456570908 3.510216459040551 8.776213498695842 0 0 0
310 1 8.775950541187832 1.7551026075005056 10.531787575680175 0 0 0
311 1 8.776109357974585 0.00014626345235430667 12.287020797324972 0 0 0
331 1 8.776130067447367 3.510211917797189 12.286928167236725 0 0 0
215 1 12.286988194664328 0.00014124903082369614 8.776213498695844 0 0 0
216 1 10.531548029203574 1.7551031081201145 8.776213498695842 0 0 0
235 1 12.286920300085578 3.5102075389863807 8.776213498695844 0 0 0
313 1 10.531719155943021 0.000140092238661825 10.531787575680173 0 0 0
314 1 12.287113468761337 1.755094067219835 10.531837797554438 0 0 0
315 1 12.287580437474636 0.00014824273015138711 12.287598465673405 0 0 0
316 1 10.531560339156268 1.7550964362868169 12.28702079732497 0 0 0
333 1 10.531485994133435 3.510219171596076 10.531536872603144 0 0 0
335 1 12.28678784163625 3.510239583276129 12.286797697320283 0 0 0
220 1 14.042309150746407 1.7551866977184332 8.776213498695842 0 0 0
239 1 15.79739447136728 3.5102752257635728 8.776213498695842 0 0 0
317 1 14.042355533506518 0.00014909199057718895 10.531730547580523 0 0 0
318 1 15.797579512692382 1.7551321595470424 10.53186291104296 0 0 0
319 1 15.797742866949141 0.000310998174471975 12.287604899136209 0 0 0
320 1 14.042816711884615 1.7549250937006702 12.287776773185893 0 0 0
337 1 14.042238065837576 3.510173208300833 10.531774227209256 0 0 0
339 1 15.797562689838815 3.5101070072920413 12.287211950181728 0 0 0
224 1 5.600202073678348e-05 5.265360546384444 8.776213498695842 0 0 0
228 1 3.510303081549184 5.265456724505459 8.776213498695842 0 0 0
322 1 1.755093607748593 5.265314163624335 10.531730547580523 0 0 0
324 1 0.00031760603849713306 5.264852985246234 12.287776773185893 0 0 0
328 1 3.510102675254808 5.265761785123796 12.28686773296047 0 0 0
341 1 0.00014863251933363355 7.020556228369518 10.531837797554438 0 0 0
343 1 1.7550944570090181 7.020089259656217 12.287598465673407 0 0 0
345 1 3.5102168812909578 7.020853109331312 10.531549741481752 0 0 0
244 1 0.00013959161905226054 8.77612166792728 8.776213498695842 0 0 0
248 1 3.51021645904055 8.776156456570906 8.776213498695842 0 0 0
342 1 1.7551026075005065 8.775950541187832 10.531787575680175 0 0 0
344 1 0.0001462634523509438 8.776109357974583 12.28702079732497 0 0 0
348 1 3.510211917797189 8.776130067447365 12.286928167236725 0 0 0
232 1 7.020828687699968 5.265523900597269 8.776213498695842 0 0 0
326 1 5.265523805138336 5.265523805138335 10.53164774095143 0 0 0
332 1 7.021033971288402 5.265593838429635 12.286693579722902 0 0 0
347 1 5.265593838429636 7.0210339712884045 12.2866935797229 0 0 0
349 1 7.020885163190075 7.020885163190076 10.531483250075574 0 0 0
251 1 8.776196038104198 7.020855624442557 8.776213498695842 0 0 0
252 1 7.0208556244425555 8.776196038104198 8.776213498695842 0 0 0
350 1 8.776185428659714 8.776185428659716 10.53152306791064 0 0 0
236 1 10.53151205332449 5.265513184893409 8.776213498695844 0 0 0
255 1 12.28682796569199 7.020841731438862 8.776213498695842 0 0 0
330 1 8.77622843792475 5.2655273228723924 10.531486381542933 0 0 0
334 1 12.286794764843163 5.265524435541929 10.531474285418955 0 0 0
336 1 10.531486659369723 5.265526434093411 12.286886434110118 0 0 0
351 1 8.776227575207287 7.020880198021835 12.286830766090507 0 0 0
353 1 10.531508001925424 7.0208501525660925 10.531520456365255 0 0 0
355 1 12.28678940533723 7.020880291793625 12.286834725878057 0 0 0
256 1 10.531501802216484 8.776167894914368 8.776213498695842 0 0 0
354 1 12.28681954456476 8.776161695205431 10.531520456365257 0 0 0
356 1 10.531496242605247 8.77617345452561 12.286851239715368 0 0 0
259 1 15.797462158144473 7.020749397045279 8.776213498695842 0 0 0
338 1 15.797496488830022 5.265431631293275 10.531774227209256 0 0 0
340 1 14.04201336499869 5.2656563321321626 12.286636507446634 0 0 0
357 1 14.042145261588926 7.020874932287692 10.531474285418955 0 0 0
359 1 15.797430113854723 7.020881855494603 12.286797697320283 0 0 0
260 1 14.042156512237446 8.776157643806362 8.776213498695842 0 0 0
358 1 15.797450525534778 8.776183702997416 10.531536872603143 0 0 0
360 1 14.04214326303744 8.776183037761129 12.286886434110116 0 0 0
263 1 1.7551031081201174 10.531548029203574 8.776213498695844 0 0 0
268 1 3.5102075389863807 12.286920300085576 8.776213498695842 0 0 0
361 1 0.00014009223866210053 10.531719155943023 10.531787575680175 0 0 0
362 1 1.7550940672198347 12.287113468761337 10.53183779755444 0 0 0
363 1 1.7550964362868178 10.531560339156272 12.287020797324969 0 0 0
364 1 0.00014824273015136294 12.287580437474636 12.287598465673405 0 0 0
365 1 3.5102191715960744 10.531485994133437 10.531536872603143 0 0 0
368 1 3.510239583276128 12.286787841636249 12.286797697320283 0 0 0
267 1 5.2655131848934085 10.531512053324493 8.776213498695842 0 0 0
272 1 7.020841731438862 12.28682796569199 8.776213498695842 0 0 0
346 1 5.265527322872393 8.776228437924747 10.531486381542933 0 0 0
352 1 7.0208801980218345 8.776227575207285 12.286830766090507 0 0 0
366 1 5.26552443554193 12.286794764843163 10.531474285418955 0 0 0
367 1 5.265526434093412 10.531486659369724 12.286886434110118 0 0 0
369 1 7.0208501525660925 10.531508001925424 10.531520456365255 0 0 0
372 1 7.020880291793623 12.28678940533723 12.286834725878057 0 0 0
271 1 8.77616789491437 10.531501802216486 8.776213498695842 0 0 0
370 1 8.776161695205433 12.286819544564759 10.531520456365255 0 0 0
371 1 8.77617345452561 10.531496242605247 12.286851239715368 0 0 0
275 1 12.2868140726883 10.531473659026657 8.776213498695842 0 0 0
276 1 10.531473659026657 12.286814072688298 8.776213498695842 0 0 0
373 1 10.531484268471138 10.53148426847114 10.53152306791064 0 0 0
374 1 12.28678453394078 12.286784533940779 10.53148325007557 0 0 0
375 1 12.286789499109018 10.531442121923565 12.286830766090509 0 0 0
376 1 10.531442121923567 12.286789499109018 12.286830766090509 0 0 0
279 1 15.797453238090306 10.531513240559947 8.776213498695842 0 0 0
280 1 14.042145796533582 12.286841009430887 8.776213498695844 0 0 0
377 1 14.04214237425846 10.531441259206106 10.531486381542932 0 0 0
378 1 15.797452815839895 12.286816587799542 10.531549741481752 0 0 0
379 1 15.797457779333666 10.531539629683488 12.286928167236725 0 0 0
380 1 14.042075858701219 12.28663572584245 12.286693579722902 0 0 0
284 1 4.7024356975325916e-05 15.797406730689904 8.776213498695842 0 0 0
288 1 3.5102752257635728 15.797394471367282 8.776213498695842 0 0 0
381 1 0.00014909199057779038 14.042355533506518 10.531730547580525 0 0 0
382 1 1.7551321595470424 15.79757951269238 10.531862911042959 0 0 0
383 1 1.7549250937006693 14.042816711884619 12.287776773185893 0 0 0
384 1 0.00031099817447242294 15.797742866949141 12.287604899136209 0 0 0
385 1 3.510173208300834 14.04223806583758 10.531774227209256 0 0 0
388 1 3.5101070072920404 15.797562689838815 12.287211950181728 0 0 0
287 1 5.265455431247298 14.042214265883558 8.776213498695842 0 0 0
292 1 7.020749397045274 15.797462158144471 8.776213498695842 0 0 0
386 1 5.265431631293275 15.79749648883002 10.531774227209256 0 0 0
387 1 5.2656563321321626 14.042013364998692 12.286636507446632 0 0 0
389 1 7.02087493228769 14.042145261588924 10.531474285418955 0 0 0
392 1 7.020881855494601 15.797430113854723 12.286797697320283 0 0 0
291 1 8.776157643806362 14.042156512237447 8.776213498695844 0 0 0
390 1 8.77618370299742 15.797450525534776 10.531536872603143 0 0 0
391 1 8.776183037761133 14.042143263037442 12.286886434110116 0 0 0
295 1 12.286841009430887 14.042145796533584 8.776213498695842 0 0 0
296 1 10.531513240559944 15.797453238090304 8.776213498695844 0 0 0
393 1 10.531441259206103 14.042142374258463 10.531486381542933 0 0 0
394 1 12.286816587799542 15.797452815839895 10.531549741481752 0 0 0
395 1 12.28663572584245 14.042075858701217 12.286693579722904 0 0 0
396 1 10.531539629683488 15.797457779333666 12.286928167236725 0 0 0
299 1 15.797366615581668 14.042212972625396 8.776213498695842 0 0 0
300 1 14.042212972625396 15.797366615581668 8.776213498695842 0 0 0
397 1 14.042145891992519 14.042145891992519 10.531647740951428 0 0 0
398 1 15.797435864935174 15.797435864935176 10.531902804240987 0 0 0
399 1 15.797567021876045 14.041907912007057 12.28686773296047 0 0 0
400 1 14.041907912007057 15.797567021876045 12.28686773296047 0 0 0
402 1 1.7559115453672516 1.7559115453672502 14.044883192404964 0 0 0
403 1 1.7541047945213344 0.0011379052178356896 15.799547559504713 0 0 0
404 1 0.0011379052178337387 1.7541047945213344 15.799547559504711 0 0 0
408 1 3.510522105278602 1.7560475738926482 15.79723317632963 0 0 0
423 1 1.7560475738926489 3.510522105278603 15.79723317632963 0 0 0
425 1 3.511617098039885 3.5116170980398858 14.040767833428317 0 0 0
406 1 5.262974193687907 1.754944671092905 14.044490065232853 0 0 0
409 1 7.020575713343265 0.00031647466123333005 14.042256524717427 0 0 0
412 1 7.020119961543465 1.7551671736531171 15.797780550268774 0 0 0
427 1 5.266299012744207 3.5112039652752665 15.796766291660978 0 0 0
429 1 7.020564986482814 3.510045094454748 14.042091777744023 0 0 0
410 1 8.776059942071653 1.7551965175232365 14.042358785003668 0 0 0
411 1 8.775979255471112 0.00010505194674129344 15.79735683661081 0 0 0
431 1 8.77599261293523 3.5102511911945276 15.797327135241522 0 0 0
413 1 10.5316097550592 4.6182215931435865e-05 14.042358785003668 0 0 0
414 1 12.287093983787589 1.754926225077939 14.042256524717425 0 0 0
415 1 12.287549735587389 7.552608605273225e-05 15.797780550268776 0 0 0
416 1 10.531690441659741 1.7551376477924272 15.797356836610813 0 0 0
433 1 10.531669058315517 3.5102856195489687 14.042237007055945 0 0 0
435 1 12.287187962796162 3.5103300822931107 15.797610930965266 0 0 0
421 1 17.55177372228123 3.5084872610830327 14.043892259686691 -1 0 0
417 1 14.044695503442949 0.00029802864626479617 14.044490065232853 0 0 0
418 1 15.799182436047822 1.755895974849623 14.043892259686693 0 0 0
420 1 14.041840409738988 1.755875811165913 15.797015394725168 0 0 0
437 1 14.041840739160518 3.5105348085218413 14.041628948058614 0 0 0
439 1 15.795955657345608 3.5117140397852453 15.795954971710021 0 0 0
422 1 1.754944671092906 5.262974193687907 14.044490065232853 0 0 0
428 1 3.5112039652752647 5.266299012744205 15.796766291660978 0 0 0
441 1 0.0003164746612326245 7.020575713343268 14.042256524717425 0 0 0
443 1 1.7551671736531178 7.020119961543467 15.797780550268774 0 0 0
445 1 3.510045094454745 7.020564986482817 14.042091777744021 0 0 0
442 1 1.7551965175232376 8.77605994207165 14.042358785003668 0 0 0
444 1 0.00010505194674248559 8.77597925547111 15.79735683661081 0 0 0
448 1 3.510251191194527 8.775992612935228 15.79732713524152 0 0 0
426 1 5.266217741006647 5.2662177410066455 14.041583382988431 0 0 0
432 1 7.020676034036389 5.265613116454721 15.797621877541136 0 0 0
447 1 5.265613116454722 7.02067603403639 15.797621877541138 0 0 0
449 1 7.021035109243715 7.021035109243714 14.042127924459342 0 0 0
430 1 8.77603509436609 5.265468089421725 14.042205242689997 0 0 0
451 1 8.776136752844911 7.02078931652141 15.797461642653985 0 0 0
446 1 5.265468089421726 8.77603509436609 14.042205242689997 0 0 0
452 1 7.020789316521409 8.776136752844911 15.797461642653985 0 0 0
434 1 12.286892203331812 5.265596667744177 14.042195646144975 0 0 0
436 1 10.531575709890094 5.265454807154722 15.797383439206481 0 0 0
453 1 10.531484397292738 7.020833478016138 14.04219241218506 0 0 0
455 1 12.286957040479168 7.020712656651687 15.79748560645579 0 0 0
454 1 12.286836219114715 8.776185299838115 14.042192412185058 0 0 0
456 1 10.531540646337273 8.77612905079358 15.79745721893006 0 0 0
424 1 17.551793885964937 5.265829287391864 15.797015394725172 -1 0 0
438 1 15.797134888609014 5.265828957970334 14.041628948058614 0 0 0
440 1 14.042291712075187 5.265377985055668 15.79784119050544 0 0 0
457 1 14.042073029386676 7.020777493799041 14.042195646144977 0 0 0
459 1 15.79733961483774 7.02048173433469 15.797610930965266 0 0 0
458 1 15.797384077581887 8.776000638815336 14.042237007055945 0 0 0
460 1 14.042214889976131 8.77609398724076 15.797383439206481 0 0 0
461 1 4.6182215931289904e-05 10.531609755059202 14.04235878500367 0 0 0
462 1 1.754926225077939 12.287093983787587 14.042256524717427 0 0 0
463 1 1.7551376477924274 10.531690441659743 15.797356836610811 0 0 0
464 1 7.552608605314254e-05 12.287549735587387 15.797780550268774 0 0 0
465 1 3.5102856195489673 10.531669058315519 14.042237007055945 0 0 0
468 1 3.5103300822931094 12.287187962796162 15.797610930965266 0 0 0
466 1 5.265596667744178 12.286892203331812 14.042195646144975 0 0 0
467 1 5.265454807154722 10.531575709890094 15.797383439206483 0 0 0
469 1 7.020833478016138 10.53148439729274 14.04219241218506 0 0 0
472 1 7.020712656651686 12.286957040479166 15.797485606455792 0 0 0
470 1 8.776185299838115 12.286836219114715 14.04219241218506 0 0 0
471 1 8.77612905079358 10.531540646337273 15.79745721893006 0 0 0
450 1 8.776216569953469 8.776216569953469 14.042183616038173 0 0 0
473 1 10.531453127177384 10.531453127177384 14.04218361603817 0 0 0
474 1 12.286634587887137 12.28663458788714 14.042127924459342 0 0 0
475 1 12.286880380609444 10.531532944285942 15.797461642653987 0 0 0
476 1 10.531532944285944 12.286880380609446 15.797461642653985 0 0 0
477 1 14.04220160770913 10.531634602764765 14.042205242689997 0 0 0
478 1 15.797624602676107 12.287104710648038 14.042091777744021 0 0 0
479 1 15.797418505936326 10.531677084195625 15.79732713524152 0 0 0
480 1 14.042056580676133 12.286993663094464 15.797621877541138 0 0 0
405 1 3.5084872610830313 17.55177372228123 14.043892259686691 0 -1 0
481 1 0.00029802864626371516 14.044695503442949 14.044490065232852 0 0 0
482 1 1.7558959748496221 15.799182436047822 14.043892259686693 0 0 0
483 1 1.7558758111659145 14.04184040973899 15.797015394725168 0 0 0
485 1 3.5105348085218413 14.041840739160518 14.041628948058614 0 0 0
488 1 3.5117140397852458 15.795955657345607 15.795954971710021 0 0 0
407 1 5.265829287391865 17.55179388596494 15.79701539472517 0 -1 0
486 1 5.265828957970334 15.797134888609014 14.041628948058614 0 0 0
487 1 5.265377985055667 14.042291712075187 15.79784119050544 0 0 0
489 1 7.020777493799039 14.042073029386678 14.042195646144977 0 0 0
492 1 7.020481734334688 15.797339614837743 15.797610930965268 0 0 0
490 1 8.776000638815338 15.797384077581889 14.042237007055945 0 0 0
491 1 8.776093987240762 14.042214889976133 15.797383439206483 0 0 0
493 1 10.531634602764765 14.04220160770913 14.042205242689997 0 0 0
494 1 12.28710471064804 15.797624602676107 14.042091777744021 0 0 0
495 1 12.286993663094464 14.042056580676132 15.797621877541138 0 0 0
496 1 10.531677084195623 15.797418505936326 15.79732713524152 0 0 0
401 1 17.551758151763604 17.551758151763604 14.044883192404964 -1 -1 0
419 1 15.797147591852251 17.551622123238207 15.797233176329627 0 -1 0
484 1 17.551622123238207 15.79714759185225 15.797233176329629 -1 0 0
497 1 14.041451956124206 14.041451956124206 14.04158338298843 0 0 0
498 1 15.796052599090967 15.796052599090968 14.040767833428317 0 0 0
499 1 15.796465731855589 14.041370684386651 15.79676629166098 0 0 0
500 1 14.041370684386651 15.796465731855589 15.79676629166098 0 0 0

Velocities

2 -8.801422087473262e-09 -8.801412774754401e-09 1.849236462966527e-15
3 -1.3432134663900043e-10 1.3431697321590653e-10 4.581653082879949e-09
4 1.3432908205742147e-10 -1.3431440574542177e-10 4.581649984940356e-09
5 6.830582277643909e-09 -4.907807177788879e-09 -7.880461944552904e-16
8 1.1316974727103443e-08 -1.1291987966423734e-09 6.660988521665415e-09
21 -4.9077958938268275e-09 6.8305724227066946e-09 -2.0888694669443473e-15
23 -1.129202855320463e-09 1.1316967586989242e-08 6.660984962807108e-09
25 3.945341145999636e-09 3.945334160605593e-09 -1.260158837564056e-15
102 4.5971850073657414e-09 4.597188932837144e-09 7.94359767626786e-09
125 -2.3417851846030294e-09 -2.341794881578331e-09 1.7660718058498464e-09
6 -2.75882796033187e-09 6.8737081757218765e-09 -1.3650738392355116e-15
9 3.1988505289265053e-09 1.7440091419182932e-10 -1.376272631296572e-15
12 -3.004134464444079e-09 7.190922341962509e-10 -1.853196305207664e-09
27 3.4324056456024953e-09 -4.571716544456384e-09 -6.6207485876487594e-09
29 -4.478511558726658e-09 2.634984793548082e-09 6.78705753720772e-16
106 -2.0973739119115433e-09 -2.1988569129591115e-10 -4.084945655404721e-09
109 1.4015431068954085e-09 2.9188166316045746e-09 2.4252644763478546e-09
129 -6.5061704628423085e-09 6.8785808457144785e-09 4.325116955404401e-09
10 -8.070413622669445e-09 -5.035103236455835e-09 -2.2701130789887568e-15
11 -2.2441023396432178e-09 -2.3708958203833567e-10 -2.6506484181888328e-09
31 2.0061869415686034e-09 5.302189898803998e-09 2.832897489633376e-09
110 4.473290539419017e-09 1.0805268142474397e-10 4.703150605825616e-09
13 8.070402064083721e-09 5.035098360855319e-09 -3.9018949975089106e-16
14 -3.1988425949781783e-09 -1.743877178341404e-10 3.087127601290979e-16
15 3.0041359721551674e-09 -7.190904942575753e-10 -1.8531918746117885e-09
16 2.2441055133922343e-09 2.370859724907579e-10 -2.6506425435381617e-09
33 -1.931110729970731e-10 -6.809219762956836e-11 -6.177064110187321e-16
35 5.070353231707267e-10 -4.1234480582519245e-09 5.697470568428009e-10
113 -4.473294141433197e-09 -1.0805256354271986e-10 4.703149853148893e-09
114 -1.4015490310565293e-09 -2.9188106101907836e-09 2.4252579168026237e-09
133 2.545502525932949e-09 1.1761561180803935e-09 4.096400561566671e-09
121 2.420046990848592e-09 -3.442619157918652e-09 2.8057978493678637e-09
17 2.7588394857422362e-09 -6.873698460203352e-09 -9.09165110824395e-17
18 -6.830585625493393e-09 4.907798619848635e-09 -3.2205368982460256e-15
20 6.256072199825146e-10 -1.5253328271295558e-09 2.855064883624845e-10
37 7.1957275904870544e-09 -4.7121525098124566e-09 4.534037351712583e-16
39 -3.0032949634836236e-09 3.00328517382358e-09 -3.6215940971077024e-09
117 2.097374267740275e-09 2.198742993014314e-10 -4.084947631694623e-09
118 3.442612771070587e-09 -2.4200381732731894e-09 2.8057959245247867e-09
137 -2.7032755240304347e-09 2.695558896298737e-09 -4.171020311729107e-09
22 6.873706215367012e-09 -2.758821322774669e-09 2.1100882324200069e-16
28 -4.571715129607869e-09 3.4324144781479937e-09 -6.620751344667552e-09
41 1.7439229465822757e-10 3.1988403392043424e-09 -1.8643042110454205e-15
43 7.190887401730567e-10 -3.004149870445808e-09 -1.8531894315068392e-09
45 2.6349883329558555e-09 -4.478522707419086e-09 1.4145842891270976e-16
122 -2.1989084286469275e-10 -2.0973602002889296e-09 -4.084949060540479e-09
141 2.9188238542361905e-09 1.4015353573311445e-09 2.4252535321807375e-09
145 6.8785767569764726e-09 -6.5061766858343605e-09 4.32511473406501e-09
42 -5.035103476935164e-09 -8.070396767013526e-09 -1.982775645259815e-15
44 -2.3708186783867894e-10 -2.2440936093005133e-09 -2.650647070207887e-09
48 5.302191688253124e-09 2.006195985477492e-09 2.8328995648056767e-09
142 1.080546665580297e-10 4.47329133453327e-09 4.703147677046728e-09
26 6.192330983314936e-10 6.192380499519754e-10 7.391179886856254e-16
32 7.168913450266209e-09 -9.088236486236946e-10 9.986176003782944e-10
47 -9.088247952704315e-10 7.168908484133679e-09 9.986169968268008e-10
49 -1.5373951858030555e-09 -1.5374018422325748e-09 -2.239758457784571e-15
126 2.0586313342882167e-09 2.0586325597524403e-09 -1.0794339229959125e-09
149 -3.2762262473952157e-09 -3.2762328512975015e-09 -1.1690749346152323e-09
30 2.645093142182377e-09 3.883861735440595e-09 -2.8904672307830363e-15
51 4.953349969335894e-09 -4.759090733485365e-09 2.7844189681431755e-09
130 -9.802723541114172e-09 -8.052353666959584e-09 6.7994380113789745e-09
46 3.883860759303758e-09 2.6450999691724496e-09 -1.9851332857416935e-15
52 -4.759089422931963e-09 4.953354588047132e-09 2.7844183645872123e-09
146 -8.052356766836377e-09 -9.802710051130486e-09 6.799435580135904e-09
50 -5.162324451420474e-09 -5.162319328470317e-09 2.6877101493414855e-16
34 6.727100295405314e-10 6.032014927980222e-09 -2.418939457769993e-15
36 -8.465240907152044e-09 -6.0077827589643045e-09 3.901991024205738e-09
53 4.4273872912829125e-09 -3.6925468398817827e-09 -5.516878727595681e-16
55 -8.736087745123877e-10 8.736075625509224e-10 -5.204972478009355e-09
134 7.761212656127253e-09 2.894269687233042e-09 -2.3830185051895933e-09
153 9.878226282883916e-09 -2.1272644128684952e-09 1.7286174078007966e-09
54 3.69254667906952e-09 -4.4273851331442214e-09 -7.016236769205949e-16
56 -6.710888305362693e-11 6.710489840219639e-11 -1.3799359707995626e-09
154 2.1272629055257163e-09 -9.878227166643373e-09 1.7286192861587551e-09
24 1.52534037079859e-09 -6.255938604127241e-10 2.8551476544880624e-10
38 4.7121435725868e-09 -7.1957228822790125e-09 1.7340445744216338e-15
40 -9.605884113300513e-10 9.605952826732356e-10 -1.0617363767272817e-09
57 -6.032013044462622e-09 -6.727132870398909e-10 1.1381509426268439e-15
59 4.123441615409898e-09 -5.070437210861232e-10 5.697449964151063e-10
138 -2.6955656614007474e-09 2.703280181107149e-09 -4.171024314265883e-09
157 -2.8942691959273878e-09 -7.761216692490213e-09 -2.3830142142654974e-09
58 6.809563101719636e-11 1.931199318562222e-10 -4.176560113647755e-15
60 6.007785261300942e-09 8.465240507154446e-09 3.901987620362292e-09
158 -1.1761612320098132e-09 -2.5454911871626797e-09 4.096407552606157e-09
61 5.035100586467933e-09 8.070399029169568e-09 -9.772419797386365e-16
62 -1.7439546332703522e-10 -3.1988388067380293e-09 -2.2692289638080524e-16
63 2.3708461448984034e-10 2.244094386143052e-09 -2.6506524438599555e-09
64 -7.190917886021999e-10 3.004147267610716e-09 -1.8531937713335563e-09
65 -6.809630902302557e-11 -1.9312062986727987e-10 -2.140350757154116e-15
68 -4.123444903434255e-09 5.07042647519334e-10 5.697456774002195e-10
161 -1.0806069386592162e-10 -4.473295653141223e-09 4.703146692731827e-09
162 -2.9188193334605665e-09 -1.4015254599564014e-09 2.4252615658406796e-09
165 1.176164943539156e-09 2.5454909851451324e-09 4.096402068237082e-09
66 6.032014141133828e-09 6.727191390719483e-10 1.744653956590087e-16
67 -6.007781707898995e-09 -8.465245165050754e-09 3.901996442063565e-09
69 -3.692544383349334e-09 4.427378251168352e-09 1.1693896790117341e-15
72 8.736013656402682e-10 -8.736016777329271e-10 -5.204971473654509e-09
166 2.8942754758818815e-09 7.761216509621118e-09 -2.383023959038276e-09
169 -2.1272716845546896e-09 9.878221498816849e-09 1.728616790283181e-09
70 -4.4273834697670875e-09 3.6925434205939497e-09 -1.3759088547378447e-15
71 6.710683347558982e-11 -6.710933628741743e-11 -1.3799422515538062e-09
170 -9.878222195078607e-09 2.127276004286205e-09 1.7286218388203107e-09
73 5.1623207187046e-09 5.1623264498154874e-09 -9.713478785339403e-16
74 1.5373921232603027e-09 1.5373936044601766e-09 2.1081749507730107e-15
75 4.7590906844100655e-09 -4.953346115197219e-09 2.7844161426364723e-09
76 -4.953346424886261e-09 4.7590906016370845e-09 2.784415936217516e-09
150 -2.4920495052857264e-09 -2.492047929964626e-09 2.7699513869701707e-09
173 2.4920520020155737e-09 2.492049361687856e-09 2.7699512026321556e-09
174 3.276229060681828e-09 3.276230372305304e-09 -1.1690721295387928e-09
77 -3.88386183396418e-09 -2.645097731486137e-09 -8.251741686574736e-16
78 -2.6349838917505976e-09 4.478517075015975e-09 3.8193775806431634e-16
79 -5.3021894154877e-09 -2.0061909831537997e-09 2.8328999009098908e-09
80 9.088289855573543e-10 -7.168917923405523e-09 9.986194268364063e-10
177 8.052359414236363e-09 9.80272108463698e-09 6.799437675359949e-09
178 -6.87858038862693e-09 6.506167844387849e-09 4.3251097441189296e-09
105 -3.4426092982661572e-09 2.420045348162586e-09 2.805790096027691e-09
81 -6.873704875343103e-09 2.7588226460003896e-09 -7.212906349247024e-16
82 4.907802066129609e-09 -6.830579216247743e-09 -1.4617370987646676e-15
83 -1.525340189260273e-09 6.255989647043673e-10 2.855171254469286e-10
85 -4.71214406002897e-09 7.195726464124314e-09 -6.822422144435898e-17
88 3.0032861559281932e-09 -3.00328003652497e-09 -3.621600969924412e-09
181 2.1989902328775475e-10 2.0973583943363206e-09 -4.084946613309658e-09
182 -2.420045495680888e-09 3.442612675586147e-09 2.805788234817883e-09
185 2.6955545738596187e-09 -2.7032832541441645e-09 -4.171016246420154e-09
7 -6.256100808042583e-10 1.525337936771938e-09 2.855130947773317e-10
86 -7.195736858316532e-09 4.7121453840843935e-09 -5.699503769609941e-16
87 9.605959428586182e-10 -9.606038491392052e-10 -1.0617387446393935e-09
89 -6.727145830053932e-10 -6.032018363004844e-09 5.304691084226616e-16
92 -5.070256650964927e-10 4.123442019745241e-09 5.697479520121554e-10
186 2.703278421671892e-09 -2.695556033646599e-09 -4.171010848510175e-09
189 -7.76121221235856e-09 -2.8942721937873534e-09 -2.38302083768805e-09
90 1.9311465339388832e-10 6.809989834646856e-11 1.8224560924920774e-15
91 8.465237791124784e-09 6.0077837406228304e-09 3.901993402475574e-09
190 -2.545502062204981e-09 -1.1761579239892572e-09 4.096400825429005e-09
93 -2.645084395912073e-09 -3.883855948630451e-09 2.4395684886237736e-15
94 4.4785061886110495e-09 -2.6349971228289818e-09 -1.1269521503379211e-15
95 -7.168922847107431e-09 9.088254129330972e-10 9.986130652722438e-10
96 -2.0061895795150404e-09 -5.302191151889915e-09 2.832892160186779e-09
193 9.802714955036591e-09 8.052350951969353e-09 6.799440421642729e-09
194 6.506179570369993e-09 -6.8785801477009384e-09 4.325115963510054e-09
1 8.801415160479238e-09 8.801413812964304e-09 -9.351082276265097e-16
101 -4.597185681061509e-09 -4.59718875005554e-09 7.943600054169315e-09
19 -1.1316979244342606e-08 1.1291932483775569e-09 6.660983154496858e-09
84 1.1292023283878153e-09 -1.131696752333295e-08 6.660984633916261e-09
97 -6.192304331478623e-10 -6.19230368312749e-10 1.1021969252781969e-16
98 -3.945336379439991e-09 -3.945332105627208e-09 9.872619517866201e-16
99 4.571713453325487e-09 -3.4324124536715823e-09 -6.620754508031669e-09
100 -3.4324025008922882e-09 4.571714705232583e-09 -6.620742936975661e-09
197 -2.0586328989878958e-09 -2.0586238306184875e-09 -1.0794282741699012e-09
198 2.341778425247768e-09 2.3417997842917135e-09 1.766075420983006e-09
103 6.495281545851301e-09 -6.495277278079971e-09 -1.0053624697013398e-08
104 -6.4952790420371095e-09 6.495284240634372e-09 -1.0053631953830802e-08
108 4.5509148865363844e-10 -3.6281352403650374e-09 -6.2968094972043294e-09
123 -3.6281428281362234e-09 4.5509020963367705e-10 -6.296805989035292e-09
201 3.908567450142295e-09 3.908561161725719e-09 -4.587669952318638e-09
202 -3.908563923112134e-09 -3.908563425649992e-09 -4.5876754204236785e-09
205 2.823618148534312e-09 -3.4400591360121885e-10 -3.824948500027065e-09
221 -3.439998121842138e-10 2.8236191310809826e-09 -3.824950724460859e-09
225 2.979215391622606e-09 2.9792129106112183e-09 6.585586884612803e-10
107 2.62551285484592e-09 4.956970678230359e-09 4.786604003844477e-11
112 1.6141056186375525e-09 -3.832421137018818e-09 4.397129622775691e-10
127 2.913644712241324e-09 -3.059814206834725e-10 5.0903673944174566e-09
206 -1.6153960341068882e-09 -4.7281702314242315e-09 5.38084951245409e-09
209 -5.965739962075307e-09 -2.8813059632666434e-09 -9.803359443499725e-10
229 -8.901383235902947e-09 -1.1550581081288695e-09 2.394869062711596e-09
111 3.7693920718607174e-09 1.1146363268498081e-09 -5.050230869215334e-09
131 2.5522418552539837e-09 6.9410028456350366e-09 -8.841285822713507e-09
210 -5.702678305189212e-09 -2.0477418904750758e-10 2.224969711678527e-09
115 -1.6141038897963643e-09 3.832425755509891e-09 4.3971995877553476e-10
116 -3.76939265286829e-09 -1.1146377602952211e-09 -5.050232430562743e-09
135 -9.872559616943879e-09 1.491888671092564e-09 -4.384615603311556e-09
213 5.702679117336784e-09 2.0477034373588164e-10 2.2249682493520184e-09
214 5.965750639971365e-09 2.881302478674011e-09 -9.803402709149618e-10
233 6.367886856903947e-09 -5.473456462039876e-10 -4.011160428809929e-09
119 -4.5508988192165007e-10 3.62812964892593e-09 -6.29681620351268e-09
120 -2.625514308515468e-09 -4.9569727643415455e-09 4.787699899146709e-11
139 2.9873490027013685e-09 -2.987357963208725e-09 -2.826309257222408e-09
217 1.6153860322592013e-09 4.7281799101278196e-09 5.380852471955981e-09
218 -2.8236252491580334e-09 3.440083353492609e-10 -3.82494382895186e-09
237 3.6473866781175853e-09 3.842809386876943e-09 1.2634425024964924e-09
219 4.847675245795319e-09 6.230759003780779e-10 6.235959074568622e-15
124 4.9569907737677764e-09 2.6255131933515203e-09 4.787599699426229e-11
128 -3.0597462948041097e-10 2.9136520508209627e-09 5.090372201644097e-09
143 -3.832424263250097e-09 1.614093918846661e-09 4.397122585218853e-10
222 -4.728178652916033e-09 -1.6153925923938422e-09 5.380841283183664e-09
241 -2.8813049412294944e-09 -5.965753486090521e-09 -9.803359962180631e-10
245 -1.1550462483868068e-09 -8.901395151224542e-09 2.394865338187602e-09
144 1.114635352554879e-09 3.7694008198857256e-09 -5.050225046432754e-09
148 6.941006140087648e-09 2.55225231040138e-09 -8.84128657907363e-09
242 -2.0478044151006552e-10 -5.7026582365807326e-09 2.224967650511336e-09
243 -4.6777282511742896e-09 2.7133525622689674e-09 6.42692795360078e-15
132 8.615003064368622e-09 -7.342126748858471e-09 5.102976255987353e-09
147 -7.342131882764218e-09 8.614993774337262e-09 5.102983876507639e-09
226 -1.8591340845354647e-09 -1.8591235406916927e-09 2.637176982483274e-09
249 -8.035511578315006e-10 -8.035549166471914e-10 -1.3479208713610266e-09
250 1.1725283699376497e-09 1.172531102041855e-09 -1.4429054265038867e-09
247 2.725309797621825e-09 2.6729732628555745e-09 4.644082063110888e-15
136 -7.386852466121041e-10 7.754538514023004e-10 -5.306889092407927e-09
151 -1.742722622008309e-09 4.8194063247998604e-09 4.798236913540571e-10
155 -7.906669052307242e-09 7.906669271793138e-09 -1.9802237112804674e-10
230 -8.229883008218717e-09 1.9757191917027073e-10 -1.9927708164126644e-09
234 2.7317761949240845e-10 -2.820264437076296e-09 -2.617766905685418e-09
253 4.485709805665719e-09 1.8432625420521307e-09 9.640308187011254e-10
156 2.2009835211029216e-09 -2.2009867461899805e-09 1.5128033971152352e-09
254 -1.8432660657065238e-09 -4.485707338908367e-09 9.640351723467469e-10
140 4.349201562890783e-09 -4.349193627367626e-09 -6.139045035540597e-10
159 -1.4919005978431896e-09 9.872565464242874e-09 -4.3846119133542946e-09
238 -3.842817011265233e-09 -3.6473786965882053e-09 1.263449109268209e-09
257 2.8202656562665256e-09 -2.731883761948737e-10 -2.6177710851256094e-09
160 -7.75446636506692e-10 7.386845058083796e-10 -5.3068929648324185e-09
258 5.473489569758914e-10 -6.367882510877117e-09 -4.011171187292137e-09
240 6.167700777556968e-09 -6.167695450320947e-09 8.041764331157433e-15
163 -1.1146362655511556e-09 -3.769398126281475e-09 -5.050216118637659e-09
164 3.832431640896575e-09 -1.6140942324128453e-09 4.397101566853957e-10
168 1.4918858928158657e-09 -9.872556486419293e-09 -4.3846139818706935e-09
261 2.0478833724803935e-10 5.702663209139214e-09 2.224967969971621e-09
262 2.8813033321398655e-09 5.965744002481682e-09 -9.80344191376378e-10
265 -5.47352616236529e-10 6.367874369009765e-09 -4.011171853394645e-09
264 4.677728041786345e-09 -2.713352806782072e-09 7.21202223406632e-15
152 4.8194084314989835e-09 -1.7427174630483643e-09 4.798265885995043e-10
167 7.754526015533193e-10 -7.386913348867141e-10 -5.306889774944847e-09
172 7.906669211979492e-09 -7.906668724650471e-09 -1.980251114384446e-10
246 1.9757203970093221e-10 -8.229875848241924e-09 -1.992773991431445e-09
266 -2.8202597475130454e-09 2.731917281379954e-10 -2.617767259190841e-09
269 1.8432621612931929e-09 4.485701782511533e-09 9.64031930475965e-10
171 -2.2009867967958548e-09 2.2009807492459196e-09 1.512806034117695e-09
270 -4.485702951361839e-09 -1.8432576350609206e-09 9.640357669165084e-10
175 -4.8194066587559506e-09 1.7427215627733431e-09 4.798238182407022e-10
176 1.7427229208462733e-09 -4.819403285921003e-09 4.798237375905182e-10
273 -1.1725293392238211e-09 -1.1725300036760954e-09 -1.442901086138412e-09
274 8.035540345080176e-10 8.035585097833811e-10 -1.347924359745684e-09
179 -6.941007249928486e-09 -2.552254607880587e-09 -8.841290275985141e-09
180 7.342123106001236e-09 -8.614996811850807e-09 5.102981810712657e-09
277 -1.9756990223186232e-10 8.229885942005356e-09 -1.9927694846312876e-09
278 1.1550427906860113e-09 8.901393357532125e-09 2.394872091563574e-09
183 -4.9569816591296736e-09 -2.6255235822943034e-09 4.7865091433508307e-11
184 3.6281290477276067e-09 -4.5509453236750056e-10 -6.296801580247591e-09
188 -2.987343831659029e-09 2.987352704933688e-09 -2.826307646364549e-09
281 4.728167741755883e-09 1.6154007194752882e-09 5.380842256447126e-09
282 3.440028700439188e-10 -2.8236145808348528e-09 -3.824943017628829e-09
285 3.842821084236518e-09 3.6473824349817566e-09 1.2634438865603887e-09
283 5.363105078087735e-09 3.5235525352408325e-09 7.057891487563513e-15
187 -4.349203688893087e-09 4.349201846102345e-09 -6.139000981554668e-10
192 9.872558466176514e-09 -1.4918844338600459e-09 -4.384617840462466e-09
286 -3.6473879746402645e-09 -3.842816181965193e-09 1.263440658968988e-09
289 -2.731874797549633e-10 2.820257560718521e-09 -2.617762045342592e-09
191 7.386870400882825e-10 -7.754604545638801e-10 -5.3068974947438996e-09
290 -6.367884811809898e-09 5.47355902879456e-10 -4.011160081405618e-09
195 -8.61499379327897e-09 7.342117306254001e-09 5.102973776868525e-09
196 -2.5522483924311424e-09 -6.940999060664272e-09 -8.841290180500702e-09
293 8.22987946220389e-09 -1.9757959272365296e-10 -1.9927664739243923e-09
294 8.901384214897041e-09 1.1550640731066413e-09 2.3948815366397257e-09
199 3.059771892885642e-10 -2.913642518438437e-09 5.090377374896724e-09
200 -2.9136418388485677e-09 3.05975226552863e-10 5.09035615804797e-09
297 1.859131350965199e-09 1.85912108108326e-09 2.637173496711821e-09
298 -2.979204528794086e-09 -2.9792213045849347e-09 6.585496849269851e-10
203 -6.852359897080639e-09 6.852357535903697e-09 -1.4526380800299178e-15
204 6.852357968530726e-09 -6.852357610169372e-09 1.5383604144257187e-16
208 -4.8476741508002494e-09 -6.230666104692156e-10 3.3736960390033704e-15
223 -6.230679657390361e-10 -4.847681099816636e-09 2.451651396093401e-15
301 3.908565589963954e-09 3.908557869870196e-09 4.587672573720149e-09
302 -3.908564059855282e-09 -3.908559294474457e-09 4.5876741023552965e-09
303 6.495275324038069e-09 -6.495280781975785e-09 1.005362627191724e-08
304 -6.49527650167949e-09 6.4952818004764735e-09 1.0053631379745345e-08
305 2.8236250285344577e-09 -3.4399609587282085e-10 3.824944106282884e-09
308 4.5509601477079166e-10 -3.6281367301866078e-09 6.296805906114958e-09
321 -3.4399390629480674e-10 2.8236178060870322e-09 3.8249472500355515e-09
323 -3.628143320883084e-09 4.550873627827952e-10 6.296806251322795e-09
325 2.979217587985744e-09 2.9792099999659004e-09 -6.585607906925207e-10
207 -3.5235582314765848e-09 -5.363102192998872e-09 2.5382854742693035e-15
212 2.7133628712453746e-09 -4.677722553199303e-09 -7.138797236131102e-15
227 -1.0616947109405263e-08 6.172850716711683e-09 3.1529527393543643e-16
306 -1.6154074290910125e-09 -4.7281752673443006e-09 -5.380848913245026e-09
307 2.625513162996899e-09 4.956978874756265e-09 -4.787127110391637e-11
309 -5.965740741570191e-09 -2.8813156272349783e-09 9.803391294485873e-10
312 1.6141047456808724e-09 -3.832423131582666e-09 -4.3970655951543047e-10
327 2.913644214394716e-09 -3.0598124735882455e-10 -5.090366011214652e-09
329 -8.901379534559348e-09 -1.1550485127715562e-09 -2.394866487332729e-09
211 6.088713581179438e-10 -6.896484680595871e-09 1.812390072778432e-16
231 2.0463110725906603e-09 3.510643368306483e-09 -1.1378794506573626e-17
310 -5.702669301035684e-09 -2.0477685789653307e-10 -2.224971113885204e-09
311 3.7693859242026466e-09 1.1146342686296675e-09 5.050222399391903e-09
331 2.552238852557789e-09 6.941009439973883e-09 8.841285842587266e-09
215 -2.7133577033803244e-09 4.6777143155781325e-09 -6.917558924076231e-15
216 -6.088819132385503e-10 6.8964852275684626e-09 2.6572588280394104e-15
235 9.202895367088701e-10 6.226161124298022e-09 -3.4325610724019912e-15
313 5.702671490646112e-09 2.0478305613335994e-10 -2.2249644721172614e-09
314 5.965742240021669e-09 2.8813036999317807e-09 9.803419221474142e-10
315 -1.6141050812428752e-09 3.832429447968593e-09 -4.397086762870101e-10
316 -3.769384931669964e-09 -1.1146404762970562e-09 5.050227459772492e-09
333 6.367884484286442e-09 -5.473530461743737e-10 4.011162571076269e-09
335 -9.87256110585178e-09 1.4918890337823976e-09 4.3846182697993885e-09
220 3.523564303837513e-09 5.363100747765256e-09 -1.1024916303384318e-15
239 -7.120741915481121e-09 7.120736808831837e-09 -2.2043938505563937e-16
317 1.6153967957721164e-09 4.728174458968321e-09 -5.380851711174868e-09
318 -2.823625375881209e-09 3.4399951733180107e-10 3.82494071023556e-09
319 -4.550907188840211e-10 3.6281389191683046e-09 6.296812372346897e-09
320 -2.625509384583322e-09 -4.956975696067485e-09 -4.787111908751319e-11
337 3.6473883941529176e-09 3.842818751685556e-09 -1.263443242353546e-09
339 2.9873418328127485e-09 -2.987350840804458e-09 2.8263127255556097e-09
224 -5.363102603228315e-09 -3.523548047280142e-09 2.2182081502549007e-16
228 6.172856029194032e-09 -1.0616939555087902e-08 1.0842521499698365e-15
322 -4.7281806144729135e-09 -1.6153919958302168e-09 -5.380850179887375e-09
324 4.956982069359118e-09 2.625522531965469e-09 -4.7871805109485516e-11
328 -3.0597218072080826e-10 2.9136503827843005e-09 -5.0903653978021855e-09
341 -2.8812994561789132e-09 -5.965753125371527e-09 9.803394830209832e-10
343 -3.832431227720081e-09 1.6140997593115448e-09 -4.397156661964968e-10
345 -1.1550487878050537e-09 -8.901388822640588e-09 -2.3948728504681223e-09
244 -6.8964731210845886e-09 6.088871331053735e-10 4.473622814364446e-16
248 3.510649912379698e-09 2.0463161134074848e-09 1.780907283765535e-15
342 -2.047817712192973e-10 -5.702669666716494e-09 -2.2249696486116443e-09
344 1.1146450442254897e-09 3.769395364305651e-09 5.050228483283166e-09
348 6.94101010363126e-09 2.552250145422029e-09 8.841284945408362e-09
232 2.672979807027792e-09 2.7253168208036884e-09 1.603623770968031e-15
326 -1.85913151249076e-09 -1.8591243405212261e-09 -2.6371814737883916e-09
332 8.615006831604128e-09 -7.34212788521515e-09 -5.102980184368968e-09
347 -7.342132080683467e-09 8.614996452126443e-09 -5.102973902394461e-09
349 -8.035532819182222e-10 -8.035616242817149e-10 1.3479184055637876e-09
251 5.411423990362586e-09 -5.367295922889498e-09 -5.727869131657542e-17
252 -5.367291348141405e-09 5.411429026077747e-09 -2.0385439731426872e-15
350 1.1725348816342524e-09 1.1725326352449308e-09 1.4429027067215382e-09
236 -3.974065249130143e-09 7.761581547542829e-09 -6.4012103323287265e-15
255 -9.085943950251768e-09 9.085950226490408e-09 2.1508565320748306e-15
330 -8.229890759826025e-09 1.9756947608834522e-10 1.9927738439085385e-09
334 2.731902334261633e-10 -2.8202590837427602e-09 2.6177638836061607e-09
336 -7.386850878745301e-10 7.754529626040721e-10 5.3068924390279385e-09
351 -1.7427220188754714e-09 4.819407237243823e-09 -4.798209058893183e-10
353 4.4857063296971665e-09 1.8432712629642733e-09 -9.640289803309595e-10
355 -7.906673016833972e-09 7.906669637167872e-09 1.9802170835248297e-10
256 -4.4088838709931005e-09 4.4088923234651994e-09 2.92055938029295e-15
354 -1.8432713970550757e-09 -4.485707773275998e-09 -9.6403781352573e-10
356 2.2009816173005984e-09 -2.200993333840404e-09 -1.5128089545159083e-09
259 -6.22615917882906e-09 -9.203033998697466e-10 -1.4204783903317938e-15
338 -3.8428234523390286e-09 -3.6473812216211614e-09 -1.2634453971632703e-09
340 4.349207784114604e-09 -4.349205688466921e-09 6.139021789205445e-10
357 2.820257907881082e-09 -2.73196401603074e-10 2.6177603360532427e-09
359 -1.4918884229877413e-09 9.87255602808155e-09 4.3846200837573844e-09
260 -7.761585221453532e-09 3.9740689186480095e-09 1.650348337314947e-17
358 5.473474584743364e-10 -6.367875061492981e-09 4.011166094420315e-09
360 -7.754473651801505e-10 7.386922276358321e-10 5.306897351259374e-09
263 6.896471524961982e-09 -6.088848862739943e-10 -3.2151401118304756e-15
268 6.226160192025057e-09 9.203026808930069e-10 4.3457967968708794e-15
361 2.0478189381660236e-10 5.702666002943185e-09 -2.2249708583759166e-09
362 2.881303761230433e-09 5.965750543755199e-09 9.803332183281653e-10
363 -1.1146441495009269e-09 -3.769397665362761e-09 5.0502349084428896e-09
364 3.8324291426817796e-09 -1.6141034413565674e-09 -4.397063131420001e-10
365 -5.473437848836652e-10 6.367877710000175e-09 4.011166434381021e-09
368 1.4918919950617288e-09 -9.872551486803203e-09 4.384617591597857e-09
267 7.761584256602978e-09 -3.974072656175766e-09 4.997276868269178e-16
272 9.085950122469155e-09 -9.08594176878505e-09 2.3194209193792938e-17
346 1.9756364564343352e-10 -8.229876966748915e-09 1.992771488625697e-09
352 4.819411018312914e-09 -1.7427159651178003e-09 -4.798185452189e-10
366 -2.820264453575175e-09 2.731900377420033e-10 2.617762296136598e-09
367 7.75449271839924e-10 -7.386919901640481e-10 5.3068905519853905e-09
369 1.8432697942588317e-09 4.485705779596265e-09 -9.640301644558916e-10
372 7.906677443988754e-09 -7.906669849979442e-09 1.9802177385989213e-10
271 4.408886233210149e-09 -4.408890211012869e-09 1.0563656836451174e-15
370 -4.48571414303117e-09 -1.843265395091819e-09 -9.640315816925263e-10
371 -2.200994940095799e-09 2.200982883029184e-09 -1.5128072715428e-09
275 5.367288812832912e-09 -5.411433058126918e-09 -1.2615771056664362e-15
276 -5.411429430401337e-09 5.367296961317314e-09 -3.3001072645094248e-15
373 -1.1725261529752379e-09 -1.172534370615678e-09 1.442900822082678e-09
374 8.035462983799004e-10 8.035545278555483e-10 1.3479338987107235e-09
375 -4.81940375192338e-09 1.7427320281667634e-09 -4.798264032685974e-10
376 1.7427283618528481e-09 -4.819404687165284e-09 -4.798259661778123e-10
279 -3.510654381471422e-09 -2.046313450922247e-09 1.407511367681462e-15
280 -2.7253028164153763e-09 -2.6729809766845474e-09 -8.266476939586477e-15
377 -1.9756464174653712e-10 8.229879824517717e-09 1.992777555424067e-09
378 1.155050259691058e-09 8.901388481047493e-09 -2.3948727435248435e-09
379 -6.941010321934033e-09 -2.552248650123089e-09 8.841283474192351e-09
380 7.342123437249724e-09 -8.615000900588812e-09 -5.102981129354558e-09
284 6.230684019025252e-10 4.847676909110679e-09 5.192703161337388e-16
288 7.120738678845959e-09 -7.120741510339945e-09 -1.781956759381593e-15
381 4.7281717379565e-09 1.6153949417825823e-09 -5.3808573530085414e-09
382 3.4399777754047795e-10 -2.8236165895445433e-09 3.82494647186684e-09
383 -4.956972256859432e-09 -2.625518554625976e-09 -4.7868808843138105e-11
384 3.628136944349696e-09 -4.550862440823865e-10 6.2968102870138905e-09
385 3.842815036630814e-09 3.6473772452920823e-09 -1.263445294562164e-09
388 -2.9873480976437097e-09 2.9873445856964615e-09 2.8263141138812173e-09
287 -6.167700624253929e-09 6.167693154052794e-09 6.507087729984649e-16
292 -9.202870102277149e-10 -6.226152321631718e-09 1.6432754158693117e-15
386 -3.647382695735873e-09 -3.842814194474267e-09 -1.2634451602940782e-09
387 -4.349209526827651e-09 4.349201850045258e-09 6.139075350192427e-10
389 -2.731858775832767e-10 2.8202614614346983e-09 2.6177630809361736e-09
392 9.87256725891674e-09 -1.4918849027334944e-09 4.384618390598532e-09
291 3.97406502329178e-09 -7.76159156424319e-09 -7.157501797922878e-15
390 -6.367892900874392e-09 5.473585779172878e-10 4.0111686116435865e-09
391 7.386803528960446e-10 -7.754531899976186e-10 5.306899492650808e-09
295 -2.67298437901763e-09 -2.725308511480151e-09 -2.4692139757767694e-16
296 -2.0463022788099755e-09 -3.510646147412039e-09 -6.545988797935644e-15
393 8.229893626147256e-09 -1.975735878133456e-10 1.992772947415745e-09
394 8.901386719890053e-09 1.1550493944370012e-09 -2.3948726142966746e-09
395 -8.615000659731892e-09 7.342126852545224e-09 -5.102986488791712e-09
396 -2.5522443418314144e-09 -6.941008179092098e-09 8.841284690209897e-09
299 -6.1728456129541915e-09 1.0616936494151222e-08 1.1175215884104072e-15
300 1.0616933502894861e-08 -6.172845199188287e-09 1.6559477334594087e-15
397 1.8591303212657186e-09 1.8591310636277653e-09 -2.6371717768130898e-09
398 -2.979213331634235e-09 -2.979217231171592e-09 -6.585563113702644e-10
399 3.0597307992120427e-10 -2.913643631244744e-09 -5.090367750492543e-09
400 -2.9136444393260192e-09 3.0597497192769095e-10 -5.09036726035601e-09
402 4.597183309864595e-09 4.597187796454432e-09 -7.943598318430185e-09
403 -1.3431515134922418e-10 1.3431632014949307e-10 -4.581653765416869e-09
404 1.3432105075511995e-10 -1.343125809316888e-10 -4.581649665480071e-09
408 1.1316975752382347e-08 -1.1292002336242472e-09 -6.660988100826589e-09
423 -1.129206045208035e-09 1.1316971493304817e-08 -6.660987248539555e-09
425 -2.34178406236616e-09 -2.3417887528918987e-09 -1.7660707372539027e-09
406 -2.097371683941288e-09 -2.1988606733035848e-10 4.0849451886047936e-09
409 1.4015451910495944e-09 2.9188149435339892e-09 -2.425263495569414e-09
412 -3.0041339257232293e-09 7.190875542798944e-10 1.8531961024505827e-09
427 3.4323985567669766e-09 -4.57171768083332e-09 6.620751733194731e-09
429 -6.50616670122692e-09 6.878576724264211e-09 -4.325120841974735e-09
410 4.473283076308072e-09 1.0805281816789191e-10 -4.703147649933862e-09
411 -2.244104805735162e-09 -2.370811935535011e-10 2.650656022758207e-09
431 2.006186573187278e-09 5.302191798472817e-09 -2.832897395269909e-09
413 -4.47327832094722e-09 -1.0804315891483765e-10 -4.703149113954925e-09
414 -1.401550726255293e-09 -2.9188250166536864e-09 -2.4252594156564434e-09
415 3.0041354440436996e-09 -7.190884761173228e-10 1.8531856492620961e-09
416 2.244104995338476e-09 2.370829405650982e-10 2.6506432446415e-09
433 2.5455041302105786e-09 1.1761600356868544e-09 -4.096401854094715e-09
435 5.070338967982352e-10 -4.12344118926638e-09 -5.697431069274269e-10
421 2.420047711107759e-09 -3.4426164595991208e-09 -2.8057899393919518e-09
417 2.0973652497654317e-09 2.1988472066177143e-10 4.084945451877016e-09
418 3.4426120897124877e-09 -2.4200418853781285e-09 -2.8057983797448766e-09
420 6.256071079945918e-10 -1.5253409668277746e-09 -2.855057510104238e-10
437 -2.703274864185805e-09 2.6955653167431793e-09 4.171011338402081e-09
439 -3.0032876536193093e-09 3.003283859291659e-09 3.6215990524259376e-09
422 -2.1989259127613887e-10 -2.097368298783985e-09 4.084947498603659e-09
428 -4.571710947153654e-09 3.4324087296310887e-09 6.62075106381363e-09
441 2.918819100054159e-09 1.4015362320157633e-09 -2.425259723344643e-09
443 7.190848288474973e-10 -3.004145334345521e-09 1.853194949269682e-09
445 6.878589686866285e-09 -6.5061773129667285e-09 -4.325116341386408e-09
442 1.0804699951118264e-10 4.473298063828616e-09 -4.7031521878023795e-09
444 -2.3708414620349964e-10 -2.244097548917759e-09 2.6506547060159977e-09
448 5.302194127232203e-09 2.006194580323765e-09 -2.832894243033211e-09
426 2.058623136376251e-09 2.058634851049748e-09 1.0794292411386468e-09
432 7.1689207344704615e-09 -9.088219196858063e-10 -9.986122343421137e-10
447 -9.088282048560212e-10 7.1689145581684396e-09 -9.986189180100048e-10
449 -3.2762281303731086e-09 -3.2762273447173342e-09 1.1690712384059478e-09
430 -9.802720425087057e-09 -8.052356761448764e-09 -6.799439128255895e-09
451 4.953347720399714e-09 -4.7590925576337094e-09 -2.7844153826232696e-09
446 -8.052358388073343e-09 -9.802718438332893e-09 -6.7994387083011845e-09
452 -4.759089439089912e-09 4.953350753751259e-09 -2.784415435762276e-09
434 7.761214861321901e-09 2.894267881059931e-09 2.383020975771185e-09
436 -8.46524144045884e-09 -6.007785137920826e-09 -3.90198845826864e-09
453 9.878223743823719e-09 -2.1272644597035757e-09 -1.7286209333021749e-09
455 -8.736094813755695e-10 8.736050932172226e-10 5.204975118124637e-09
454 2.127268689264553e-09 -9.878222099832392e-09 -1.728613994821494e-09
456 -6.710398934072162e-11 6.710667623349609e-11 1.3799384080794823e-09
424 1.5253477714320625e-09 -6.25600606800963e-10 -2.8551568492859417e-10
438 -2.6955654042705823e-09 2.7032803265440963e-09 4.1710124182014216e-09
440 -9.605970473671363e-10 9.605923939742351e-10 1.0617369606853586e-09
457 -2.8942653126076453e-09 -7.761212319352614e-09 2.3830159337774284e-09
459 4.1234450033392706e-09 -5.070346247197339e-10 -5.697444727978905e-10
458 -1.1761688844273168e-09 -2.5455031720807722e-09 -4.096403779418991e-09
460 6.00778706312768e-09 8.46524527205338e-09 -3.901990500809551e-09
461 -1.0804250113314321e-10 -4.4732891970374685e-09 -4.703156088518557e-09
462 -2.918826213055493e-09 -1.401541358115581e-09 -2.4252654046687943e-09
463 2.370837185864572e-10 2.244095313874582e-09 2.6506488729187406e-09
464 -7.19089225846996e-10 3.0041452141058563e-09 1.853194073111538e-09
465 1.1761648450708277e-09 2.545497632519612e-09 -4.096402333872251e-09
468 -4.123436383280725e-09 5.07035437269935e-10 -5.697440987964477e-10
466 2.8942644396296417e-09 7.761216774501106e-09 2.383021780230811e-09
467 -6.0077879084891455e-09 -8.46524320614622e-09 -3.9019927866893505e-09
469 -2.1272638761987807e-09 9.878218428926135e-09 -1.728620532503293e-09
472 8.73607464847014e-10 -8.736013229725013e-10 5.2049717998377545e-09
470 -9.878223329943114e-09 2.127271597395668e-09 -1.7286180202462618e-09
471 6.710845983456829e-11 -6.710505540171245e-11 1.3799403038480632e-09
450 -2.4920525262100716e-09 -2.492050696681058e-09 -2.7699556477422553e-09
473 2.492053169696664e-09 2.4920531493639213e-09 -2.7699421066341476e-09
474 3.276229659749911e-09 3.2762228513835636e-09 1.1690723007163852e-09
475 4.759090084998393e-09 -4.953348247853411e-09 -2.7844215360103934e-09
476 -4.953352678006581e-09 4.7590846433845746e-09 -2.784417129952596e-09
477 8.052351392364623e-09 9.802714438448462e-09 -6.79943870682766e-09
478 -6.878579744991078e-09 6.506179216172008e-09 -4.325114550021699e-09
479 -5.3021939563032675e-09 -2.006192741953599e-09 -2.8328905939767362e-09
480 9.088252192266845e-10 -7.168916842427362e-09 -9.986189965670184e-10
405 -3.442612551810022e-09 2.420045644341172e-09 -2.805788285359801e-09
481 2.1988933574301471e-10 2.0973644699758423e-09 4.084950027173076e-09
482 -2.4200417156280134e-09 3.4426135172637994e-09 -2.805795616590232e-09
483 -1.5253455010242784e-09 6.256008944331017e-10 -2.8550705802736595e-10
485 2.6955649569083007e-09 -2.703276343899912e-09 4.171008685467128e-09
488 3.0032855005041394e-09 -3.0032801022441985e-09 3.621601586447398e-09
407 -6.256082052552073e-10 1.5253400695340398e-09 -2.8551150867930227e-10
486 2.7032779152949223e-09 -2.695562905848572e-09 4.171012578776539e-09
487 9.605939474520983e-10 -9.605987220194317e-10 1.0617395055706263e-09
489 -7.761205707968072e-09 -2.894268323388217e-09 2.3830177541705855e-09
492 -5.070286242300025e-10 4.1234419236713905e-09 -5.697511024092493e-10
490 -2.545512229398741e-09 -1.176170724565713e-09 -4.096404288669334e-09
491 8.46523627517302e-09 6.007783533150469e-09 -3.901996273492271e-09
493 9.802714338617842e-09 8.052354296019905e-09 -6.799438134805137e-09
494 6.506175324260144e-09 -6.8785784551572275e-09 -4.325112846129137e-09
495 -7.168916850430446e-09 9.088324601046882e-10 -9.986159751825277e-10
496 -2.006183008041162e-09 -5.3021938802693625e-09 -2.832890871146845e-09
401 -4.5971875229681354e-09 -4.597188931658323e-09 -7.943602536249009e-09
419 -1.1316973446020545e-08 1.1291970292961272e-09 -6.660976740241222e-09
484 1.1291976378620767e-09 -1.1316969456598146e-08 -6.660982924626911e-09
497 -2.058624371696978e-09 -2.0586258823551166e-09 1.0794358220085516e-09
498 2.3417887870776857e-09 2.341786622469018e-09 -1.766073639048859e-09
499 4.571713057241886e-09 -3.432410968358079e-09 6.62074518916296e-09
500 -3.4324087168114187e-09 4.571711617902372e-09 6.620743863874303e-09
