LAMMPS data file via write_data, version 29 Aug 2024, timestep = 26, units = metal

500 atoms
3 atom types

0 17.551291824073 xlo xhi
0 17.551291824073 ylo yhi
0 17.551291824073 zlo zhi

Masses

1 56.6411
2 55.845
3 55.845

Atoms # atomic

2 1 1.7551291824073 1.7505592354002217 1.5195750127449027e-16 0 0 0
3 1 1.7551291824072996 1.5236064731887252e-18 1.7505592354002213 0 0 0
5 3 3.5171816666577125 0 6.522874645576731e-17 0 0 0
8 1 3.5119344749334362 1.7542649468318385 1.754264946831838 0 0 0
21 1 0.0023147873202346244 3.5039933430972323 7.09174281610278e-17 0 0 0
23 1 1.7551291824073 3.5107192334334 1.75583152878701 0 0 0
25 1 3.507943577494365 3.5039933430972323 4.78758092267253e-16 0 0 0
101 1 0.0023147873202348395 0 3.5039933430972323 0 0 0
102 1 1.7551291824072999 1.7558315287870099 3.5107192334334005 0 0 0
105 1 3.5079435774943644 2.216262325235733e-19 3.5039933430972328 0 0 0
125 1 3.5106626813698925 3.5078389715063563 3.5078389715063563 0 0 0
6 1 5.266305891546855 1.7547453263442883 4.54118616841123e-16 0 0 0
7 1 5.266305891546856 0 1.754745326344288 0 0 0
9 1 7.018314720594172 7.471370092410451e-16 5.969849768860843e-16 0 0 0
12 1 7.022034380312573 1.7560666191472096 1.7560666191472094 0 0 0
27 1 5.266258482740132 3.511026884476817 1.7555552813532675 0 0 0
29 1 7.018804033352999 3.5081672400537975 3.8742179599295536e-16 0 0 0
106 1 5.266258482740132 1.7555552813532675 3.5110268844768173 0 0 0
109 1 7.018804033352998 2.4642458428286295e-16 3.5081672400537975 0 0 0
129 1 7.020945833956779 3.510702732017033 3.510702732017033 0 0 0
10 1 8.775483448418289 1.7548387632840121 6.43602579248457e-19 0 0 0
11 1 8.775483448418289 5.99021553096256e-16 1.7548387632840126 0 0 0
13 1 10.5307750944438 5.832528230703189e-16 4.1183260408038e-17 0 0 0
14 1 12.286066740469312 1.754838763284012 7.659402596014694e-19 0 0 0
15 1 12.286066740469312 3.4903591268522054e-16 1.7548387632840126 0 0 0
16 1 10.5307750944438 1.7551373310696397 1.7551373310696394 0 0 0
31 1 8.775781140237157 3.5104795761047236 1.754991752792782 0 0 0
33 1 10.5307750944438 3.5100939836294853 4.0953431511410033e-16 0 0 0
35 1 12.285769048650444 3.510479576104724 1.7549917527927825 0 0 0
110 1 8.775781140237157 1.7549917527927819 3.5104795761047245 0 0 0
113 1 10.5307750944438 5.231992525649575e-17 3.5100939836294853 0 0 0
114 1 12.285769048650444 1.754991752792782 3.510479576104724 0 0 0
133 1 10.5307750944438 3.510288112786024 3.5102881127860246 0 0 0
1 2 17.544368522229888 1.4278556645973761e-16 0 -1 0 0
4 1 17.54961571395416 1.7542649468318383 1.7542649468318383 -1 0 0
121 1 17.550887507517707 3.507838971506356 3.507838971506356 -1 0 0
17 1 14.04323546829343 5.525880730921094e-19 3.6701304105903743e-19 0 0 0
18 1 15.795244297340746 1.7547453263442885 5.979586675629176e-16 0 0 0
19 1 15.795244297340746 1.8083476465098232e-16 1.7547453263442885 0 0 0
20 1 14.039515808575027 1.7560666191472096 1.7560666191472099 0 0 0
37 1 14.042746155534603 3.5081672400537975 3.1995802601252544e-16 0 0 0
39 1 15.79529170614747 3.511026884476817 1.755555281353267 0 0 0
117 1 14.042746155534603 5.963993427517268e-17 3.508167240053797 0 0 0
118 1 15.79529170614747 1.7555552813532667 3.511026884476817 0 0 0
137 1 14.04060435493082 3.510702732017033 3.510702732017033 0 0 0
22 1 1.7551291824072999 5.263910380533183 4.0040472675925577e-19 0 0 0
24 1 6.270459061036895e-05 5.26427640183419 1.7542225514676113 0 0 0
28 1 3.5101956602239897 5.26427640183419 1.7542225514676115 0 0 0
41 1 0.0002797759393825797 7.020192432376993 3.3071824693559097e-16 0 0 0
43 1 1.7551291824072999 7.019941612144906 1.7548333755146004 0 0 0
45 1 3.509978588875218 7.0201924323769935 1.976883494340638e-16 0 0 0
122 1 1.7551291824073003 5.264544445253386 3.5098356251226868 0 0 0
141 1 0.00023613112680827614 7.020053093203182 3.5097171318746097 0 0 0
145 1 3.5100222336877915 7.020053093203182 3.5097171318746097 0 0 0
26 1 5.264242690563153 5.2639098584639745 4.728026293836231e-21 0 0 0
32 1 7.020541054010523 5.265234504762177 1.754801693098135 0 0 0
47 1 5.2650966668819015 7.020119081744188 1.7548724749664768 0 0 0
49 1 7.0199536220042225 7.020152340034842 5.757915055245502e-18 0 0 0
126 1 5.265085335497129 5.265165760013374 3.510140263544784 0 0 0
149 1 7.0202469756716095 7.02038837470587 3.510089896181751 0 0 0
30 1 8.77513422965581 5.264864446400271 5.943390585403427e-16 0 0 0
51 1 8.775496965303184 7.020534911489495 1.7549691434595724 0 0 0
34 1 12.28641595923179 5.264864446400272 5.682661155835e-16 0 0 0
36 1 10.5307750944438 5.265535384589335 1.7550092355580817 0 0 0
53 1 10.5307750944438 7.02030443780699 6.575684507342507e-16 0 0 0
55 1 12.286053223584418 7.020534911489495 1.7549691434595727 0 0 0
130 1 8.775713354850428 5.265566302420189 3.5102649286118353 0 0 0
134 1 12.285836834037173 5.265566302420188 3.5102649286118357 0 0 0
153 1 10.5307750944438 7.020672872429898 3.5102108679174493 0 0 0
38 1 15.797307498324448 5.263909858463975 2.340373015448934e-19 0 0 0
40 1 14.04100913487708 5.265234504762177 1.7548016930981347 0 0 0
57 1 14.04159656688338 7.020152340034841 7.5872715468868445e-16 0 0 0
59 1 15.796453522005699 7.020119081744187 1.7548724749664768 0 0 0
138 1 15.796464853390473 5.265165760013374 3.510140263544784 0 0 0
157 1 14.041303213215993 7.02038837470587 3.510089896181751 0 0 0
42 1 1.7551291824072996 8.7756459120365 6.063716972906992e-16 0 0 0
44 1 0.000188125026018601 8.7756459120365 1.7549435797576207 0 0 0
48 1 3.510070239788582 8.7756459120365 1.7549435797576207 0 0 0
61 1 0.00027977593938098593 10.531099391696008 2.1306984757500325e-16 0 0 0
62 1 1.7551291824072999 12.287381443539818 1.8082015721727811e-16 0 0 0
63 1 1.7551291824072999 10.531350211928096 1.7548333755146008 0 0 0
64 1 6.270459060988767e-05 12.287015422238811 1.7542225514676113 0 0 0
65 1 3.5099785888752186 10.531099391696007 4.0269796779106437e-16 0 0 0
68 1 3.5101956602239897 12.287015422238811 1.7542225514676109 0 0 0
142 1 1.7551291824072996 8.7756459120365 3.509841036118791 0 0 0
161 1 0.0002361311268084238 10.531238730869818 3.5097171318746097 0 0 0
162 1 1.7551291824073003 12.286747378819614 3.5098356251226868 0 0 0
165 1 3.5100222336877906 10.531238730869818 3.5097171318746097 0 0 0
46 1 5.2650503031019715 8.7756459120365 1.3271497784746958e-17 0 0 0
52 1 7.020176932196201 8.7756459120365 1.7549914927577714 0 0 0
66 1 5.264242690563153 12.287381965609026 3.7757645799826576e-16 0 0 0
67 1 5.2650966668819015 10.531172742328813 1.7548724749664764 0 0 0
69 1 7.0199536220042225 10.53113948403816 9.976135479994447e-19 0 0 0
72 1 7.020541054010522 12.286057319310824 1.7548016930981352 0 0 0
146 1 5.26506069177027 8.7756459120365 3.5099638937341155 0 0 0
166 1 5.26508533549713 12.286126064059626 3.510140263544784 0 0 0
169 1 7.020246975671609 10.530903449367132 3.510089896181751 0 0 0
50 1 8.77535619590639 8.7756459120365 1.4403923048710688e-16 0 0 0
70 1 8.77513422965581 12.28642737767273 4.1192963857197425e-16 0 0 0
71 1 8.775496965303184 10.530756912583506 1.7549691434595724 0 0 0
150 1 8.775430804682628 8.7756459120365 3.5101584175481633 0 0 0
54 1 12.286193992981211 8.7756459120365 9.151039019233146e-16 0 0 0
56 1 10.5307750944438 8.7756459120365 1.7549835209871256 0 0 0
73 1 10.5307750944438 10.53098738626601 5.470438262242025e-16 0 0 0
74 1 12.28641595923179 12.28642737767273 3.4296666789640047e-16 0 0 0
75 1 12.286053223584418 10.530756912583506 1.7549691434595727 0 0 0
76 1 10.5307750944438 12.285756439483665 1.7550092355580815 0 0 0
154 1 12.286119384204973 8.7756459120365 3.5101584175481637 0 0 0
170 1 8.775713354850428 12.285725521652811 3.5102649286118357 0 0 0
173 1 10.5307750944438 10.5306189516431 3.5102108679174493 0 0 0
174 1 12.285836834037173 12.285725521652811 3.5102649286118353 0 0 0
58 1 15.796499885785629 8.7756459120365 5.143868478565759e-16 0 0 0
60 1 14.0413732566914 8.7756459120365 1.7549914927577717 0 0 0
77 1 14.04159656688338 10.53113948403816 4.862080146776188e-16 0 0 0
78 1 15.797307498324448 12.287381965609026 4.482897062378848e-16 0 0 0
79 1 15.796453522005699 10.531172742328813 1.7548724749664761 0 0 0
80 1 14.04100913487708 12.286057319310824 1.7548016930981345 0 0 0
158 1 15.796489497117332 8.7756459120365 3.5099638937341155 0 0 0
177 1 14.041303213215993 10.53090344936713 3.5100898961817504 0 0 0
178 1 15.796464853390473 12.286126064059626 3.5101402635447836 0 0 0
81 1 0.0023147873202362594 14.047298480975769 0 0 0 0
82 1 1.7551291824072996 15.800732588672778 0 0 0 0
83 1 1.7551291824073 14.0405725906396 1.7558315287870094 0 0 0
85 1 3.507943577494365 14.047298480975767 8.912326083982403e-17 0 0 0
88 1 3.511934474933436 15.797026877241162 1.7542649468318383 0 0 0
182 1 1.7551291824072999 15.795460295285991 3.5107192334334005 0 0 0
185 1 3.510662681369893 14.043452852566643 3.5078389715063563 0 0 0
86 1 5.266305891546856 15.796546497728713 2.760175901867789e-16 0 0 0
87 1 5.266258482740132 14.040264939596184 1.755555281353267 0 0 0
89 1 7.018804033352998 14.043124584019205 4.3252043718112275e-16 0 0 0
92 1 7.022034380312573 15.795225204925792 1.7560666191472092 0 0 0
186 1 5.266258482740132 15.795736542719734 3.511026884476817 0 0 0
189 1 7.020945833956779 14.040589092055967 3.510702732017033 0 0 0
90 1 8.775483448418289 15.79645306078899 1.0230011879991697e-16 0 0 0
91 1 8.775781140237157 14.040812247968278 1.754991752792782 0 0 0
93 1 10.5307750944438 14.041197840443516 2.1235378578933392e-16 0 0 0
94 1 12.286066740469312 15.79645306078899 5.791832209949383e-19 0 0 0
95 1 12.285769048650444 14.040812247968278 1.754991752792782 0 0 0
96 1 10.5307750944438 15.79615449300336 1.7551373310696397 0 0 0
190 1 8.775781140237157 15.796300071280218 3.5104795761047236 0 0 0
193 1 10.5307750944438 14.041003711286976 3.510288112786024 0 0 0
194 1 12.285769048650444 15.79630007128022 3.5104795761047236 0 0 0
84 1 17.549615713954164 15.797026877241162 1.7542649468318385 -1 0 0
181 1 17.550887507517707 14.043452852566643 3.507838971506356 -1 0 0
97 1 14.042746155534603 14.043124584019205 1.7996050080914153e-19 0 0 0
98 1 15.795244297340746 15.796546497728714 1.159961627692926e-17 0 0 0
99 1 15.795291706147468 14.040264939596184 1.7555552813532675 0 0 0
100 1 14.039515808575027 15.795225204925792 1.7560666191472096 0 0 0
197 1 14.040604354930823 14.040589092055967 3.5107027320170325 0 0 0
198 1 15.79529170614747 15.795736542719734 3.5110268844768164 0 0 0
103 1 1.7551291824073 5.454960336513552e-19 5.263910380533182 0 0 0
104 1 6.270459061012018e-05 1.754222551467611 5.26427640183419 0 0 0
108 1 3.5101956602239897 1.7542225514676113 5.26427640183419 0 0 0
123 1 1.7551291824073 3.5098356251226868 5.264544445253386 0 0 0
201 1 0.00027977593938204216 0 7.0201924323769935 0 0 0
202 1 1.7551291824072996 1.7548333755146004 7.019941612144906 0 0 0
205 1 3.509978588875218 0 7.020192432376994 0 0 0
221 1 0.00023613112680860332 3.5097171318746097 7.020053093203182 0 0 0
225 1 3.510022233687791 3.50971713187461 7.020053093203182 0 0 0
107 1 5.264242690563153 0 5.2639098584639745 0 0 0
112 1 7.020541054010523 1.7548016930981347 5.265234504762177 0 0 0
127 1 5.265085335497129 3.5101402635447836 5.265165760013373 0 0 0
206 1 5.2650966668819015 1.7548724749664761 7.020119081744188 0 0 0
209 1 7.019953622004222 4.042462481229977e-19 7.020152340034841 0 0 0
229 1 7.0202469756716095 3.510089896181751 7.020388374705871 0 0 0
111 1 8.77513422965581 0 5.264864446400271 0 0 0
210 1 8.775496965303182 1.754969143459572 7.020534911489496 0 0 0
115 1 12.28641595923179 4.113475219901072e-19 5.264864446400271 0 0 0
116 1 10.5307750944438 1.755009235558081 5.265535384589335 0 0 0
131 1 8.775713354850428 3.5102649286118353 5.265566302420189 0 0 0
135 1 12.285836834037173 3.5102649286118353 5.265566302420189 0 0 0
213 1 10.5307750944438 2.9077361707092817e-19 7.02030443780699 0 0 0
214 1 12.286053223584418 1.7549691434595722 7.020534911489496 0 0 0
233 1 10.5307750944438 3.5102108679174493 7.020672872429898 0 0 0
119 1 15.797307498324448 0 5.263909858463975 0 0 0
120 1 14.04100913487708 1.7548016930981345 5.265234504762177 0 0 0
139 1 15.796464853390473 3.5101402635447836 5.265165760013374 0 0 0
217 1 14.04159656688338 5.8568425714896305e-19 7.020152340034842 0 0 0
218 1 15.796453522005699 1.7548724749664761 7.020119081744187 0 0 0
237 1 14.041303213215993 3.5100898961817504 7.02038837470587 0 0 0
124 1 0.00019950040240195233 5.264472340064078 5.264472340064078 0 0 0
128 1 3.5100588644121986 5.264472340064078 5.264472340064077 0 0 0
143 1 1.7551291824072999 7.020164238902392 5.264951596492732 0 0 0
222 1 1.7551291824073 5.264951596492732 7.020164238902392 0 0 0
241 1 0.00027750021660309193 7.020169668942782 7.020169668942781 0 0 0
245 1 3.509980864597997 7.020169668942782 7.020169668942781 0 0 0
132 1 7.020326554574805 5.2654735229708125 5.2654735229708125 0 0 0
147 1 5.264985636487295 7.0203914737378 5.265185265680509 0 0 0
226 1 5.264985636487295 5.2651852656805085 7.0203914737378 0 0 0
249 1 7.020146535818472 7.020524312355604 7.0205243123556045 0 0 0
151 1 8.775481555487335 7.020591297379843 5.265400610384075 0 0 0
230 1 8.775481555487335 5.2654006103840745 7.020591297379843 0 0 0
136 1 10.5307750944438 5.265483402914925 5.265483402914925 0 0 0
155 1 12.286068633400266 7.020591297379843 5.265400610384075 0 0 0
234 1 12.286068633400266 5.265400610384075 7.020591297379843 0 0 0
253 1 10.5307750944438 7.020555844877572 7.020555844877572 0 0 0
140 1 14.041223634312798 5.2654735229708125 5.2654735229708125 0 0 0
159 1 15.796564552400307 7.0203914737378 5.265185265680509 0 0 0
238 1 15.796564552400307 5.265185265680509 7.0203914737378 0 0 0
257 1 14.041403653069128 7.020524312355604 7.0205243123556045 0 0 0
144 1 0.00026347680619780503 8.7756459120365 5.264962803109488 0 0 0
148 1 3.5099948880084026 8.7756459120365 5.264962803109488 0 0 0
163 1 1.7551291824072992 10.531127585170609 5.264951596492731 0 0 0
164 1 0.0001995004024016597 12.286819484008921 5.264472340064077 0 0 0
168 1 3.510058864412198 12.286819484008923 5.264472340064077 0 0 0
242 1 1.7551291824072994 8.7756459120365 7.020268740502248 0 0 0
261 1 0.0002775002166034948 10.53112215513022 7.020169668942781 0 0 0
262 1 1.7551291824072994 12.28634022758027 7.0201642389023915 0 0 0
265 1 3.5099808645979973 10.53112215513022 7.020169668942782 0 0 0
152 1 7.020156333780625 8.7756459120365 5.265267448998112 0 0 0
167 1 5.264985636487295 10.5309003503352 5.2651852656805085 0 0 0
172 1 7.020326554574804 12.28581830110219 5.265473522970812 0 0 0
246 1 5.264928558955211 8.7756459120365 7.020401548479668 0 0 0
266 1 5.264985636487295 12.286106558392492 7.020391473737801 0 0 0
269 1 7.020146535818472 10.530767511717396 7.0205243123556045 0 0 0
171 1 8.775481555487335 10.530700526693158 5.265400610384075 0 0 0
250 1 8.775431106615706 8.7756459120365 7.0205294963706475 0 0 0
270 1 8.775481555487335 12.285891213688927 7.020591297379843 0 0 0
156 1 10.5307750944438 8.7756459120365 5.2653949724226665 0 0 0
175 1 12.286068633400266 10.530700526693158 5.265400610384075 0 0 0
176 1 10.5307750944438 12.285808421158077 5.265483402914924 0 0 0
254 1 12.286119082271895 8.7756459120365 7.0205294963706475 0 0 0
273 1 10.5307750944438 10.530735979195429 7.020555844877572 0 0 0
274 1 12.286068633400266 12.285891213688927 7.020591297379843 0 0 0
160 1 14.041393855106977 8.7756459120365 5.265267448998112 0 0 0
179 1 15.796564552400305 10.5309003503352 5.265185265680509 0 0 0
180 1 14.041223634312797 12.28581830110219 5.2654735229708125 0 0 0
258 1 15.79662162993239 8.7756459120365 7.020401548479668 0 0 0
277 1 14.04140365306913 10.530767511717396 7.0205243123556045 0 0 0
278 1 15.796564552400305 12.286106558392492 7.0203914737378 0 0 0
183 1 1.7551291824073003 14.041456198950316 5.264544445253386 0 0 0
184 1 6.270459061063965e-05 15.79706927260539 5.26427640183419 0 0 0
188 1 3.510195660223989 15.79706927260539 5.26427640183419 0 0 0
281 1 0.0002361311268098631 14.04157469219839 7.020053093203183 0 0 0
282 1 1.7551291824072999 15.7964584485584 7.019941612144905 0 0 0
285 1 3.510022233687791 14.04157469219839 7.020053093203182 0 0 0
187 1 5.265085335497129 14.041151560528217 5.265165760013373 0 0 0
192 1 7.020541054010523 15.796490130974867 5.265234504762178 0 0 0
286 1 5.265096666881902 15.796419349106525 7.020119081744188 0 0 0
289 1 7.020246975671609 14.041201927891251 7.02038837470587 0 0 0
290 1 8.775496965303184 15.796322680613429 7.020534911489495 0 0 0
191 1 8.775713354850428 14.041026895461167 5.265566302420189 0 0 0
195 1 12.285836834037173 14.041026895461167 5.265566302420189 0 0 0
196 1 10.5307750944438 15.79628258851492 5.265535384589335 0 0 0
293 1 10.5307750944438 14.04108095615555 7.020672872429899 0 0 0
294 1 12.286053223584418 15.796322680613429 7.020534911489495 0 0 0
199 1 15.796464853390471 14.041151560528217 5.265165760013373 0 0 0
200 1 14.04100913487708 15.796490130974867 5.265234504762177 0 0 0
297 1 14.041303213215993 14.041201927891251 7.02038837470587 0 0 0
298 1 15.796453522005699 15.796419349106527 7.020119081744187 0 0 0
203 1 1.7551291824072999 1.4184078881508694e-20 8.7756459120365 0 0 0
204 1 0.00018812502601915632 1.7549435797576207 8.7756459120365 0 0 0
208 1 3.5100702397885826 1.7549435797576198 8.7756459120365 0 0 0
223 1 1.7551291824072994 3.509841036118791 8.7756459120365 0 0 0
301 1 0.00027977593938138194 6.501036154024817e-19 10.531099391696008 0 0 0
302 1 1.7551291824072994 1.7548333755146006 10.531350211928096 0 0 0
303 1 1.7551291824073 0 12.287381443539818 0 0 0
304 1 6.270459061021078e-05 1.7542225514676113 12.287015422238811 0 0 0
305 1 3.5099785888752177 3.85191009339148e-20 10.531099391696007 0 0 0
308 1 3.5101956602239897 1.754222551467611 12.287015422238811 0 0 0
321 1 0.00023613112681034995 3.50971713187461 10.531238730869818 0 0 0
323 1 1.7551291824073 3.5098356251226868 12.286747378819614 0 0 0
325 1 3.510022233687791 3.509717131874609 10.531238730869818 0 0 0
207 1 5.265050303101971 1.9384907804728545e-19 8.7756459120365 0 0 0
212 1 7.0201769321962 1.7549914927577714 8.7756459120365 0 0 0
227 1 5.265060691770269 3.509963893734115 8.7756459120365 0 0 0
306 1 5.2650966668819015 1.7548724749664761 10.531172742328813 0 0 0
307 1 5.264242690563153 0 12.287381965609026 0 0 0
309 1 7.0199536220042225 9.456052587672462e-21 10.53113948403816 0 0 0
312 1 7.020541054010523 1.7548016930981345 12.286057319310824 0 0 0
327 1 5.265085335497129 3.5101402635447836 12.286126064059626 0 0 0
329 1 7.0202469756716095 3.5100898961817504 10.53090344936713 0 0 0
211 1 8.77535619590639 2.789535513363376e-19 8.7756459120365 0 0 0
231 1 8.775430804682628 3.5101584175481633 8.7756459120365 0 0 0
310 1 8.775496965303182 1.7549691434595727 10.530756912583506 0 0 0
311 1 8.77513422965581 0 12.28642737767273 0 0 0
215 1 12.286193992981211 0 8.7756459120365 0 0 0
216 1 10.5307750944438 1.7549835209871236 8.7756459120365 0 0 0
235 1 12.286119384204973 3.5101584175481633 8.7756459120365 0 0 0
313 1 10.5307750944438 0 10.530987386266009 0 0 0
314 1 12.286053223584418 1.754969143459572 10.530756912583506 0 0 0
315 1 12.28641595923179 3.1293575549594584e-16 12.28642737767273 0 0 0
316 1 10.5307750944438 1.7550092355580809 12.285756439483665 0 0 0
331 1 8.775713354850428 3.5102649286118357 12.285725521652811 0 0 0
333 1 10.5307750944438 3.510210867917449 10.530618951643103 0 0 0
335 1 12.285836834037173 3.5102649286118353 12.285725521652811 0 0 0
219 1 15.796499885785629 1.895913604175777e-16 8.7756459120365 0 0 0
220 1 14.0413732566914 1.7549914927577712 8.7756459120365 0 0 0
239 1 15.796489497117332 3.509963893734115 8.7756459120365 0 0 0
317 1 14.04159656688338 2.420158459157421e-19 10.53113948403816 0 0 0
318 1 15.796453522005697 1.7548724749664755 10.531172742328813 0 0 0
319 1 15.797307498324448 1.8245448248537227e-16 12.287381965609026 0 0 0
320 1 14.04100913487708 1.754801693098135 12.286057319310824 0 0 0
337 1 14.041303213215992 3.5100898961817504 10.53090344936713 0 0 0
339 1 15.796464853390471 3.5101402635447836 12.286126064059628 0 0 0
224 1 0.0002634768061985373 5.264962803109487 8.7756459120365 0 0 0
228 1 3.5099948880084018 5.264962803109487 8.7756459120365 0 0 0
243 1 1.7551291824072992 7.020268740502248 8.7756459120365 0 0 0
322 1 1.7551291824072996 5.264951596492731 10.531127585170609 0 0 0
324 1 0.0001995004024017143 5.264472340064078 12.286819484008921 0 0 0
328 1 3.510058864412198 5.264472340064078 12.286819484008923 0 0 0
341 1 0.0002775002166031092 7.020169668942782 10.53112215513022 0 0 0
343 1 1.7551291824072992 7.0201642389023915 12.28634022758027 0 0 0
345 1 3.509980864597997 7.020169668942781 10.531122155130221 0 0 0
232 1 7.020156333780625 5.265267448998112 8.7756459120365 0 0 0
247 1 5.264928558955212 7.0204015484796685 8.7756459120365 0 0 0
326 1 5.264985636487295 5.265185265680509 10.5309003503352 0 0 0
332 1 7.020326554574805 5.2654735229708125 12.28581830110219 0 0 0
347 1 5.264985636487295 7.0203914737378 12.286106558392492 0 0 0
349 1 7.020146535818472 7.0205243123556045 10.530767511717396 0 0 0
251 1 8.775431106615706 7.0205294963706475 8.7756459120365 0 0 0
330 1 8.775481555487335 5.2654006103840745 10.530700526693158 0 0 0
351 1 8.775481555487335 7.020591297379843 12.285891213688927 0 0 0
236 1 10.5307750944438 5.265394972422666 8.7756459120365 0 0 0
255 1 12.286119082271895 7.0205294963706475 8.7756459120365 0 0 0
334 1 12.286068633400266 5.265400610384075 10.530700526693158 0 0 0
336 1 10.5307750944438 5.265483402914924 12.285808421158077 0 0 0
353 1 10.5307750944438 7.020555844877573 10.530735979195429 0 0 0
355 1 12.286068633400266 7.020591297379844 12.285891213688926 0 0 0
240 1 14.041393855106977 5.265267448998112 8.7756459120365 0 0 0
259 1 15.79662162993239 7.0204015484796685 8.7756459120365 0 0 0
338 1 15.796564552400305 5.265185265680509 10.530900350335202 0 0 0
340 1 14.041223634312798 5.2654735229708125 12.28581830110219 0 0 0
357 1 14.041403653069128 7.020524312355604 10.530767511717396 0 0 0
359 1 15.796564552400305 7.020391473737799 12.286106558392492 0 0 0
244 1 0.00029773477968766336 8.7756459120365 8.7756459120365 0 0 0
248 1 3.509960630034913 8.7756459120365 8.7756459120365 0 0 0
263 1 1.7551291824072999 10.531023083570753 8.7756459120365 0 0 0
264 1 0.00026347680619830566 12.286329020963514 8.7756459120365 0 0 0
268 1 3.5099948880084018 12.286329020963514 8.7756459120365 0 0 0
342 1 1.7551291824072994 8.7756459120365 10.531023083570753 0 0 0
344 1 0.00026347680619805597 8.7756459120365 12.286329020963514 0 0 0
348 1 3.509994888008402 8.7756459120365 12.286329020963514 0 0 0
361 1 0.00027750021660336005 10.53112215513022 10.531122155130221 0 0 0
362 1 1.7551291824072999 12.28634022758027 10.531127585170609 0 0 0
363 1 1.7551291824072996 10.531127585170609 12.28634022758027 0 0 0
364 1 0.0001995004024015559 12.286819484008921 12.286819484008923 0 0 0
365 1 3.509980864597997 10.53112215513022 10.53112215513022 0 0 0
368 1 3.5100588644121977 12.286819484008921 12.286819484008921 0 0 0
252 1 7.020110984774225 8.7756459120365 8.7756459120365 0 0 0
267 1 5.264928558955211 10.530890275593332 8.7756459120365 0 0 0
272 1 7.020156333780625 12.28602437507489 8.7756459120365 0 0 0
346 1 5.264928558955211 8.7756459120365 10.530890275593332 0 0 0
352 1 7.020156333780625 8.7756459120365 12.28602437507489 0 0 0
366 1 5.264985636487295 12.286106558392492 10.5309003503352 0 0 0
367 1 5.264985636487295 10.5309003503352 12.286106558392492 0 0 0
369 1 7.020146535818472 10.530767511717396 10.530767511717396 0 0 0
372 1 7.020326554574805 12.28581830110219 12.28581830110219 0 0 0
271 1 8.775431106615706 10.530762327702353 8.7756459120365 0 0 0
350 1 8.775431106615706 8.7756459120365 10.530762327702353 0 0 0
370 1 8.775481555487335 12.285891213688927 10.530700526693158 0 0 0
371 1 8.775481555487335 10.530700526693158 12.285891213688927 0 0 0
256 1 10.5307750944438 8.7756459120365 8.7756459120365 0 0 0
275 1 12.286119082271895 10.530762327702353 8.7756459120365 0 0 0
276 1 10.5307750944438 12.285896851650335 8.7756459120365 0 0 0
354 1 12.286119082271895 8.7756459120365 10.530762327702353 0 0 0
356 1 10.5307750944438 8.7756459120365 12.285896851650334 0 0 0
373 1 10.5307750944438 10.530735979195429 10.530735979195429 0 0 0
374 1 12.286068633400266 12.285891213688927 10.530700526693158 0 0 0
375 1 12.286068633400266 10.530700526693158 12.285891213688927 0 0 0
376 1 10.5307750944438 12.285808421158077 12.285808421158077 0 0 0
260 1 14.041439204113377 8.7756459120365 8.7756459120365 0 0 0
279 1 15.796621629932389 10.530890275593332 8.7756459120365 0 0 0
280 1 14.041393855106977 12.28602437507489 8.7756459120365 0 0 0
358 1 15.79662162993239 8.7756459120365 10.530890275593332 0 0 0
360 1 14.041393855106975 8.7756459120365 12.28602437507489 0 0 0
377 1 14.04140365306913 10.530767511717396 10.530767511717396 0 0 0
378 1 15.796564552400305 12.286106558392492 10.530900350335202 0 0 0
379 1 15.796564552400305 10.5309003503352 12.286106558392492 0 0 0
380 1 14.041223634312797 12.28581830110219 12.28581830110219 0 0 0
283 1 1.7551291824072988 14.04145078795421 8.7756459120365 0 0 0
284 1 0.00018812502601889568 15.79634824431538 8.7756459120365 0 0 0
288 1 3.5100702397885826 15.796348244315382 8.7756459120365 0 0 0
381 1 0.00023613112680994538 14.04157469219839 10.531238730869818 0 0 0
382 1 1.7551291824072994 15.7964584485584 10.531350211928096 0 0 0
383 1 1.7551291824073003 14.041456198950316 12.286747378819614 0 0 0
384 1 6.270459061035366e-05 15.79706927260539 12.287015422238811 0 0 0
385 1 3.510022233687792 14.04157469219839 10.531238730869818 0 0 0
388 1 3.51019566022399 15.79706927260539 12.287015422238811 0 0 0
287 1 5.265060691770269 14.041327930338886 8.7756459120365 0 0 0
292 1 7.0201769321962 15.79630033131523 8.7756459120365 0 0 0
386 1 5.2650966668819015 15.796419349106525 10.531172742328813 0 0 0
387 1 5.265085335497129 14.041151560528219 12.286126064059626 0 0 0
389 1 7.020246975671608 14.041201927891251 10.530903449367132 0 0 0
392 1 7.020541054010523 15.796490130974867 12.286057319310824 0 0 0
291 1 8.775430804682628 14.041133406524837 8.7756459120365 0 0 0
390 1 8.775496965303182 15.796322680613429 10.530756912583506 0 0 0
295 1 12.286119384204973 14.041133406524837 8.7756459120365 0 0 0
296 1 10.5307750944438 15.796308303085876 8.7756459120365 0 0 0
391 1 8.775713354850428 14.041026895461167 12.285725521652811 0 0 0
393 1 10.5307750944438 14.04108095615555 10.5306189516431 0 0 0
394 1 12.28605322358442 15.796322680613429 10.530756912583506 0 0 0
395 1 12.285836834037173 14.041026895461167 12.285725521652811 0 0 0
396 1 10.5307750944438 15.79628258851492 12.285756439483665 0 0 0
299 1 15.796489497117332 14.041327930338884 8.7756459120365 0 0 0
300 1 14.0413732566914 15.79630033131523 8.7756459120365 0 0 0
397 1 14.041303213215993 14.041201927891251 10.530903449367132 0 0 0
398 1 15.796453522005699 15.796419349106527 10.531172742328813 0 0 0
399 1 15.796464853390471 14.041151560528217 12.286126064059626 0 0 0
400 1 14.04100913487708 15.796490130974867 12.286057319310824 0 0 0
401 1 0.002314787320236406 0 14.047298480975769 0 0 0
402 1 1.7551291824073003 1.7558315287870094 14.040572590639602 0 0 0
403 1 1.7551291824073003 2.352193081183525e-19 15.800732588672778 0 0 0
405 1 3.5079435774943644 0 14.047298480975767 0 0 0
408 1 3.5119344749334362 1.754264946831838 15.797026877241162 0 0 0
423 1 1.7551291824073 3.5107192334334 15.795460295285991 0 0 0
425 1 3.510662681369893 3.507838971506356 14.043452852566645 0 0 0
406 1 5.266258482740132 1.755555281353267 14.040264939596184 0 0 0
407 1 5.266305891546855 2.3081411529514797e-16 15.796546497728713 0 0 0
409 1 7.018804033352998 4.4871693730431245e-17 14.043124584019205 0 0 0
412 1 7.022034380312573 1.7560666191472099 15.795225204925792 0 0 0
427 1 5.266258482740132 3.5110268844768173 15.795736542719734 0 0 0
429 1 7.020945833956779 3.510702732017033 14.040589092055969 0 0 0
411 1 8.775483448418289 6.243325277817877e-16 15.79645306078899 0 0 0
410 1 8.775781140237157 1.7549917527927819 14.040812247968278 0 0 0
413 1 10.5307750944438 0 14.041197840443514 0 0 0
414 1 12.285769048650442 1.7549917527927816 14.040812247968278 0 0 0
415 1 12.286066740469312 3.998445007587192e-16 15.79645306078899 0 0 0
416 1 10.5307750944438 1.7551373310696392 15.79615449300336 0 0 0
431 1 8.775781140237157 3.5104795761047236 15.79630007128022 0 0 0
433 1 10.5307750944438 3.510288112786025 14.041003711286976 0 0 0
435 1 12.285769048650444 3.5104795761047236 15.79630007128022 0 0 0
404 1 17.549615713954164 1.7542649468318385 15.797026877241162 -1 0 0
421 1 17.550887507517707 3.5078389715063554 14.043452852566645 -1 0 0
417 1 14.042746155534603 6.09009565831083e-16 14.043124584019205 0 0 0
418 1 15.795291706147468 1.7555552813532675 14.040264939596184 0 0 0
419 1 15.795244297340746 1.4095953824704098e-16 15.796546497728713 0 0 0
420 1 14.039515808575027 1.7560666191472096 15.795225204925792 0 0 0
437 1 14.04060435493082 3.5107027320170334 14.040589092055969 0 0 0
439 1 15.79529170614747 3.511026884476817 15.795736542719734 0 0 0
422 1 1.7551291824072996 5.264544445253385 14.041456198950316 0 0 0
424 1 6.270459061021633e-05 5.26427640183419 15.79706927260539 0 0 0
428 1 3.510195660223989 5.26427640183419 15.79706927260539 0 0 0
441 1 0.000236131126809179 7.020053093203182 14.04157469219839 0 0 0
443 1 1.7551291824072996 7.019941612144905 15.7964584485584 0 0 0
445 1 3.510022233687791 7.020053093203182 14.04157469219839 0 0 0
426 1 5.265085335497129 5.265165760013373 14.041151560528217 0 0 0
432 1 7.020541054010523 5.265234504762177 15.796490130974867 0 0 0
447 1 5.2650966668819015 7.020119081744188 15.796419349106525 0 0 0
449 1 7.020246975671609 7.02038837470587 14.04120192789125 0 0 0
451 1 8.775496965303184 7.020534911489496 15.796322680613429 0 0 0
430 1 8.775713354850428 5.265566302420189 14.041026895461167 0 0 0
434 1 12.285836834037173 5.265566302420189 14.041026895461167 0 0 0
436 1 10.5307750944438 5.265535384589335 15.79628258851492 0 0 0
453 1 10.5307750944438 7.020672872429899 14.041080956155552 0 0 0
455 1 12.286053223584418 7.020534911489495 15.796322680613429 0 0 0
438 1 15.796464853390471 5.265165760013373 14.041151560528217 0 0 0
440 1 14.04100913487708 5.265234504762177 15.796490130974867 0 0 0
457 1 14.041303213215993 7.020388374705871 14.041201927891251 0 0 0
459 1 15.796453522005697 7.020119081744187 15.796419349106525 0 0 0
442 1 1.7551291824072992 8.7756459120365 14.04145078795421 0 0 0
444 1 0.00018812502601826505 8.7756459120365 15.79634824431538 0 0 0
448 1 3.5100702397885826 8.7756459120365 15.79634824431538 0 0 0
461 1 0.00023613112680861815 10.531238730869818 14.041574692198392 0 0 0
462 1 1.7551291824072996 12.286747378819614 14.041456198950316 0 0 0
463 1 1.7551291824072999 10.531350211928096 15.7964584485584 0 0 0
464 1 6.270459061065914e-05 12.287015422238811 15.79706927260539 0 0 0
465 1 3.510022233687791 10.531238730869818 14.04157469219839 0 0 0
468 1 3.510195660223989 12.287015422238811 15.79706927260539 0 0 0
446 1 5.265060691770269 8.7756459120365 14.041327930338886 0 0 0
452 1 7.0201769321962 8.7756459120365 15.796300331315232 0 0 0
466 1 5.265085335497129 12.286126064059626 14.041151560528217 0 0 0
467 1 5.2650966668819015 10.531172742328813 15.796419349106525 0 0 0
469 1 7.0202469756716095 10.53090344936713 14.041201927891251 0 0 0
472 1 7.020541054010523 12.286057319310824 15.796490130974867 0 0 0
450 1 8.775430804682628 8.7756459120365 14.041133406524837 0 0 0
471 1 8.775496965303184 10.530756912583506 15.796322680613429 0 0 0
454 1 12.286119384204973 8.7756459120365 14.041133406524837 0 0 0
456 1 10.5307750944438 8.7756459120365 15.796308303085874 0 0 0
470 1 8.775713354850428 12.285725521652811 14.041026895461167 0 0 0
473 1 10.5307750944438 10.5306189516431 14.041080956155552 0 0 0
474 1 12.285836834037173 12.285725521652811 14.041026895461167 0 0 0
475 1 12.286053223584418 10.530756912583508 15.796322680613429 0 0 0
476 1 10.5307750944438 12.285756439483665 15.79628258851492 0 0 0
458 1 15.796489497117332 8.7756459120365 14.041327930338886 0 0 0
460 1 14.0413732566914 8.7756459120365 15.79630033131523 0 0 0
477 1 14.041303213215993 10.53090344936713 14.041201927891251 0 0 0
478 1 15.796464853390473 12.286126064059628 14.041151560528217 0 0 0
479 1 15.796453522005699 10.531172742328813 15.796419349106525 0 0 0
480 1 14.04100913487708 12.286057319310824 15.796490130974867 0 0 0
482 1 1.7551291824073008 15.795460295285991 14.040572590639602 0 0 0
483 1 1.7551291824072999 14.0405725906396 15.795460295285991 0 0 0
485 1 3.510662681369893 14.043452852566645 14.043452852566645 0 0 0
488 1 3.5119344749334362 15.797026877241162 15.797026877241164 0 0 0
486 1 5.266258482740132 15.795736542719734 14.040264939596184 0 0 0
487 1 5.266258482740132 14.040264939596184 15.795736542719734 0 0 0
489 1 7.020945833956779 14.040589092055969 14.040589092055969 0 0 0
492 1 7.022034380312573 15.795225204925792 15.795225204925792 0 0 0
490 1 8.775781140237157 15.796300071280218 14.040812247968278 0 0 0
491 1 8.775781140237157 14.040812247968278 15.79630007128022 0 0 0
493 1 10.5307750944438 14.041003711286976 14.041003711286976 0 0 0
494 1 12.285769048650442 15.79630007128022 14.040812247968278 0 0 0
495 1 12.285769048650444 14.040812247968278 15.79630007128022 0 0 0
496 1 10.5307750944438 15.79615449300336 15.79615449300336 0 0 0
481 1 17.550887507517707 14.043452852566643 14.043452852566645 -1 0 0
484 1 17.549615713954164 15.797026877241164 15.797026877241162 -1 0 0
497 1 14.040604354930823 14.040589092055967 14.040589092055969 0 0 0
498 1 15.795291706147468 15.795736542719734 14.040264939596184 0 0 0
499 1 15.795291706147468 14.040264939596184 15.795736542719734 0 0 0
500 1 14.039515808575027 15.795225204925792 15.795225204925792 0 0 0

Velocities

2 1.1784605537386806e-15 6.317921326833611e-10 5.097403348042186e-16
3 1.7079994986483383e-15 1.5236064731887252e-15 6.317929931841466e-10
5 1.5133161849231523e-08 -5.412838009914989e-16 7.552797223137193e-17
8 -5.483234259984506e-09 3.241838910065208e-10 3.241866438998304e-10
21 9.026235128481025e-10 1.1771980228492039e-08 -3.014116762320597e-17
23 -7.165914851595537e-16 -2.555345761338664e-09 6.0846825085533e-09
25 -9.026217167891141e-10 1.1771980194213848e-08 -6.465506698623382e-16
101 9.026226700774157e-10 -1.6370791042407948e-16 1.1771980108518372e-08
102 -1.3770376580798022e-16 6.084682905707508e-09 -2.5553473239513544e-09
105 -9.026200277017207e-10 2.216262325235733e-16 1.1771978056850462e-08
125 -5.857904141049307e-09 -6.598009650283225e-10 -6.598011729137285e-10
6 -1.1701836685529887e-08 -9.6861007477337e-09 -3.9525537976296587e-16
7 -1.1701839319317565e-08 -1.0157868990663777e-18 -9.686100398453336e-09
9 -5.645141173292252e-09 7.564842070137969e-17 -8.144025291132907e-16
12 -9.177257750111789e-09 3.825736186036284e-10 3.825740500360277e-10
27 -1.4102818127376854e-11 -1.3530552032374499e-09 4.5087720269074576e-09
29 -2.5289033743093245e-09 -7.587963606584071e-09 -1.6074596817066547e-16
106 -1.4103573586562543e-11 4.508771592596226e-09 -1.353056783501746e-09
109 -2.528900798304554e-09 -1.1205422316391867e-15 -7.587963216798934e-09
129 5.202627815646581e-10 1.6289557347176905e-09 1.6289558578910864e-09
10 -7.177891653156309e-10 7.748100794809428e-10 6.436025792484569e-16
11 -7.177887134289772e-10 -9.314211798857375e-16 7.748093395448278e-10
13 9.804652182579331e-18 -7.80124338482978e-16 7.706682858953056e-16
14 7.177897542227028e-10 7.748099754643643e-10 7.659402596014694e-16
15 7.177889428121279e-10 -1.6075289399043183e-16 7.748078358847155e-10
16 1.1229062447861048e-17 -4.594253688042497e-09 -4.594253011934737e-09
31 -2.681956478259832e-09 -2.8666653437159016e-09 8.063455714606146e-10
33 4.580275472153848e-16 -1.2195460341875996e-08 4.0189146940243475e-16
35 2.6819561512353203e-09 -2.8666662410251102e-09 8.0634313618365e-10
110 -2.6819570499504705e-09 8.063454096734648e-10 -2.866666773131226e-09
113 -5.377206466603198e-16 -5.106268397343129e-16 -1.2195460602933228e-08
114 2.6819562507154866e-09 8.063449085026777e-10 -2.8666658553031214e-09
133 -5.993835286468264e-16 -2.995728864889607e-09 -2.9957291308318517e-09
1 -1.5133165388256507e-08 -2.6374847445875916e-16 -9.926533493266026e-16
4 5.483238502206098e-09 3.2418435553510415e-10 3.2418495658544675e-10
121 5.8579079856041794e-09 -6.59798188444092e-10 -6.597992158432823e-10
17 5.645137863378345e-09 5.525880730921095e-16 3.670130410590374e-16
18 1.170183832429889e-08 -9.686102128818338e-09 -2.0792973135361646e-15
19 1.1701838566610238e-08 -9.914818888996258e-16 -9.68610208981212e-09
20 9.177257699590242e-09 3.82573708436128e-10 3.8257319012624554e-10
37 2.528903183889321e-09 -7.587963099780284e-09 -2.2458124895722096e-17
39 1.4098828430407818e-11 -1.3530538434243056e-09 4.508772478526313e-09
117 2.528903662528108e-09 -4.15179808927494e-17 -7.587962031174696e-09
118 1.409891294387782e-11 4.508773097897757e-09 -1.3530540209821962e-09
137 -5.202590776214937e-10 1.6289556767808996e-09 1.6289564970242033e-09
22 2.316732883979753e-16 4.021448848743469e-09 4.0040472675925576e-16
24 -9.99581877353858e-10 4.359010056592876e-09 3.0357178851702982e-09
28 9.995832735991229e-10 4.359010228574832e-09 3.035717518157257e-09
41 6.669041249346706e-11 -1.56654077691003e-09 -9.775194362506406e-16
43 5.248109186158216e-16 1.7956218189550704e-09 -1.8175236219666857e-09
45 -6.669213851856596e-11 -1.5665433197870897e-09 -4.073097690663184e-16
122 -1.9408547936197726e-15 3.325772693311735e-09 2.812800337946874e-09
141 -1.9738435923794275e-10 2.6497638412392083e-09 -1.0554612995784766e-09
145 1.9738364530597238e-10 2.6497651006672123e-09 -1.0554607479415495e-09
26 -3.2511445831963294e-09 1.1936472168013316e-09 4.7280262938362306e-18
32 1.3186919578104448e-09 1.2261727768422904e-09 4.339977114885527e-09
47 6.990733968593831e-10 4.135358890594794e-10 1.762931017793411e-09
49 -6.345125971919644e-09 3.2447555410200707e-09 1.068533942406988e-15
126 -5.355942460325379e-09 -1.862378594159497e-09 3.8372648915484285e-09
149 1.219393009344561e-09 -1.226628132736062e-09 -3.743962618352551e-10
30 2.164339367939214e-09 -4.329299454034721e-09 -3.829701298007347e-16
51 -4.461410299577393e-10 -4.3212136609253715e-09 -6.0072883681595e-10
34 -2.164339557854426e-09 -4.329301764439715e-09 -5.637617289818397e-17
36 0 -3.979503617390664e-09 -3.4622221444761316e-09
53 -5.11808846307772e-16 3.6621394837587568e-09 -1.7966499916577676e-16
55 4.4614163721361645e-10 -4.321213447868686e-09 -6.007278817546386e-10
130 3.527543948500513e-09 -4.2689722309146974e-10 1.983193888659648e-09
134 -3.5275434211847562e-09 -4.268939113345346e-10 1.983194022688112e-09
153 3.551929753244468e-16 -1.1109682626321202e-09 -1.3948029501701898e-09
38 3.2511444364797633e-09 1.1936441870229822e-09 2.340373015448934e-16
40 -1.3186913730657905e-09 1.2261720299618867e-09 4.339977986615375e-09
57 6.345123642554065e-09 3.244758504125862e-09 4.937832460625213e-16
59 -6.990712955590287e-10 4.1353841993178473e-10 1.7629317764938803e-09
138 5.355941405361426e-09 -1.862379129917828e-09 3.8372650549954504e-09
157 -1.219395126332907e-09 -1.2266286123675497e-09 -3.74395954513546e-10
42 9.456052587672461e-18 1.0494925552626711e-15 -1.161616960066889e-15
44 2.3882875383865884e-09 -1.9084788948186208e-16 4.025984159060309e-09
48 -2.3882900941987705e-09 -3.1076153291664795e-17 4.025985045671435e-09
61 6.669322448710533e-11 1.5665407907986072e-09 -8.155845356867498e-16
62 9.456052587672461e-17 -4.021451152474281e-09 -4.420704584736876e-16
63 -4.7280262938362306e-18 -1.7956236724891284e-09 -1.8175256822041433e-09
64 -9.995830097161552e-10 -4.359009833193634e-09 3.035717941906614e-09
65 -6.669345307609532e-11 1.5665449639938724e-09 -7.328371497248494e-16
68 9.995843523278719e-10 -4.359011487331032e-09 3.035719305505873e-09
142 9.0305302212272e-16 -1.8217214592119969e-16 4.864701817646378e-09
161 -1.973866275085572e-10 -2.6497654715217744e-09 -1.0554617109167642e-09
162 -1.333303414861817e-15 -3.3257703612127656e-09 2.8127994026841724e-09
165 1.9738654776005122e-10 -2.6497646305100655e-09 -1.0554609487810882e-09
46 -5.329879367208427e-10 2.2801414695474755e-16 7.80124338482978e-16
52 -3.792555545836747e-09 5.827292407153154e-16 -3.273592963482109e-09
66 -3.2511444976286016e-09 -1.1936452522002107e-09 -9.603249343773534e-16
67 6.990726272876853e-10 -4.1353671163678444e-10 1.7629326820586664e-09
69 -6.345126070284754e-09 -3.244759974837541e-09 9.976135479994446e-16
72 1.318694841073077e-09 -1.2261721348649702e-09 4.339975549908823e-09
146 7.986529549478903e-09 -1.1713869831506364e-17 2.8563834864281113e-09
166 -5.355946513696206e-09 1.8623783354224135e-09 3.837263608385624e-09
169 1.2193956920704515e-09 1.2266253113625372e-09 -3.743968349606924e-10
50 -3.7692661413342096e-09 4.3717621250545865e-16 3.640580246253898e-16
70 2.1643389983132882e-09 4.329301410260218e-09 3.776926551387671e-16
71 -4.4614129710435513e-10 4.321216446619363e-09 -6.007284585738464e-10
150 1.5420700156421475e-10 -1.6621967439268e-19 -3.840029699371137e-09
54 3.769267564931846e-09 3.742713001741844e-16 -1.438058747434626e-15
56 -6.619236811370722e-17 -5.732754967342318e-16 -2.681173996935601e-09
73 1.8705254024989586e-16 -3.662140853648969e-09 -3.309618405685361e-17
74 -2.164339511465285e-09 4.329301278920414e-09 4.347891132926527e-16
75 4.4614102500274814e-10 4.321215619214762e-09 -6.007289692006862e-10
76 -2.3462830483162295e-16 3.979502967734918e-09 -3.462222135020079e-09
154 -1.542069863366457e-10 -9.130400542258136e-16 -3.840030646267129e-09
170 3.527544360889045e-09 4.2689616689668913e-10 1.9831926346430177e-09
173 5.4520053200799037e-17 1.1109700861081203e-09 -1.3948029873849281e-09
174 -3.5275435196027924e-09 4.26895993481088e-10 1.9831934950883967e-09
58 5.329910423877079e-10 -7.541201938668788e-16 -6.311915102271368e-16
60 3.792553298842251e-09 -8.179485488336679e-16 -3.273592998351303e-09
77 6.345123640781055e-09 -3.244760563181313e-09 -1.2026916884945912e-16
78 3.2511455144697585e-09 -1.1936422248920702e-09 -7.233880229569433e-16
79 -6.990719716667887e-10 -4.1353668725789884e-10 1.7629336074220627e-09
80 -1.3186923887049388e-09 -1.2261728242655426e-09 4.339977545726922e-09
158 -7.98652700259822e-09 2.151251963695485e-16 2.8563837656956334e-09
177 -1.2193946222021345e-09 1.2266306188144738e-09 -3.7439602805565176e-10
178 5.355940969916668e-09 1.8623761912324773e-09 3.83726578286217e-09
81 9.026153960089625e-10 -1.1771980964882133e-08 -2.17636960338149e-16
82 3.464461266808498e-15 -6.317906126229077e-10 -8.51635736177251e-16
83 9.863844855515836e-16 2.555347690373392e-09 6.0846850144072356e-09
85 -9.026214549746581e-10 -1.1771976934830721e-08 -4.846226951182136e-16
88 -5.48323374462964e-09 -3.2418645152826054e-10 3.2418478814951e-10
182 9.98500052929539e-16 -6.084683432882441e-09 -2.5553470189936585e-09
185 -5.857904958997855e-09 6.598013924714495e-10 -6.598021663902535e-10
86 -1.1701839875063811e-08 9.686102678326117e-09 -4.515288196679488e-16
87 -1.4103743934025515e-11 1.353055343964336e-09 4.508773245036798e-09
89 -2.5289004642399465e-09 7.587959787797865e-09 4.609825636490325e-17
92 -9.17725736271837e-09 -3.825733352175524e-10 3.825751167969603e-10
186 -1.410350539032391e-11 -4.508771819086692e-09 -1.353055509421016e-09
189 5.202626269267941e-10 -1.6289534633106896e-09 1.6289557135708542e-09
90 -7.17789304109059e-10 -7.748095416679519e-10 3.8888016266803e-16
91 -2.681957509273146e-09 2.866665011350428e-09 8.063442997692924e-10
93 1.0667609325467995e-16 1.2195457900903139e-08 3.1530025347020363e-16
94 7.177897530037586e-10 -7.748088643781852e-10 5.791832209949383e-16
95 2.681957210762234e-09 2.8666655104942587e-09 8.063449512329346e-10
96 1.3593075594779163e-17 4.594255411408081e-09 -4.594253510741511e-09
190 -2.6819576602137013e-09 -8.063423769816539e-10 -2.8666652040590544e-09
193 5.910032867295289e-16 2.995728940554188e-09 -2.9957278225814356e-09
194 2.6819576755796557e-09 -8.063472585926183e-10 -2.8666647405785786e-09
84 5.483229845780958e-09 -3.24186276295786e-10 3.241840907656317e-10
181 5.85790820005988e-09 6.598000333116409e-10 -6.597990503254243e-10
97 2.5289028618294677e-09 7.58796092488819e-09 1.7996050080914154e-16
98 1.1701840867386034e-08 9.68609801159394e-09 1.7670998273212912e-16
99 1.410591515081899e-11 1.3530559479870097e-09 4.508768747522563e-09
100 9.177257145672413e-09 -3.8257291530971716e-10 3.8257351906228383e-10
197 -5.202652011743543e-10 -1.6289535483933755e-09 1.6289573111635513e-09
198 1.4100417638245833e-11 -4.508770695469397e-09 -1.353053814169643e-09
103 -6.240994707863824e-16 5.454960336513551e-16 4.021451758548152e-09
104 -9.995817426051086e-10 3.0357175991247077e-09 4.35901047265919e-09
108 9.995833433375106e-10 3.0357177120063355e-09 4.359011324294926e-09
123 -5.980953261702832e-16 2.812800526772424e-09 3.3257736625571254e-09
201 6.669295735361972e-11 -1.211556737795534e-16 -1.5665431361951505e-09
202 9.0305302212272e-16 -1.817524762603029e-09 1.795622126720032e-09
205 -6.669232606976523e-11 -3.9208220000667786e-16 -1.5665465342401146e-09
221 -1.9738527529303718e-10 -1.0554614414192655e-09 2.6497637679548007e-09
225 1.9738452885588605e-10 -1.0554626264731996e-09 2.6497640930066084e-09
107 -3.2511456996015378e-09 -3.404178931562086e-16 1.1936472775269194e-09
112 1.318692065732897e-09 4.339977299278552e-09 1.2261729712823718e-09
127 -5.355942539676804e-09 3.83726542632991e-09 -1.8623763263448323e-09
206 6.990724914368648e-10 1.7629333865345841e-09 4.135352033963967e-10
209 -6.3451243525337e-09 4.042462481229977e-16 3.244758601050401e-09
229 1.2193918192944684e-09 -3.74396826612771e-10 -1.226629641620551e-09
111 2.1643387446893102e-09 -2.269452621041391e-16 -4.329300231019355e-09
210 -4.4613739587852924e-10 -6.007284443897675e-10 -4.321215879847211e-09
115 -2.164338767082794e-09 4.113475219901072e-16 -4.329299155170593e-09
116 -3.6169401147847165e-16 -3.462221879706659e-09 -3.979501541787121e-09
131 3.527543550621402e-09 1.9831934394232745e-09 -4.268962077606986e-10
135 -3.5275433464297663e-09 1.9831936112390113e-09 -4.2689576208784443e-10
213 -3.8163575519241565e-16 2.907736170709282e-16 3.662137861805643e-09
214 4.461414692209322e-10 -6.007291015854224e-10 -4.321215245700684e-09
233 -4.91714734558968e-16 -1.3948051273893604e-09 -1.1109677673436626e-09
119 3.251143963677134e-09 -3.2150578798086367e-16 1.1936435700155508e-09
120 -1.3186922078579331e-09 4.339976478374987e-09 1.2261724164780363e-09
139 5.355941718593168e-09 3.837265422156242e-09 -1.8623788970625332e-09
217 6.3451226975398095e-09 5.85684257148963e-16 3.244756171435889e-09
218 -6.990718901083351e-10 1.7629334506584408e-09 4.135386142241152e-10
237 -1.2193941621230746e-09 -3.743959335883359e-10 -1.2266280819190138e-09
124 6.563236767739296e-10 -3.2249049070746254e-09 -3.224904869250415e-09
128 -6.563230269658158e-10 -3.224904098877631e-09 -3.2249028698862962e-09
143 5.437230237911665e-16 3.4553937190964065e-10 5.005454635898466e-09
222 -2.1276118322263038e-16 5.005455422523841e-09 3.455385742768298e-10
241 -2.772382050019565e-09 4.235330588381817e-09 4.235332827102267e-09
245 2.7723825718569985e-09 4.235329945141689e-09 4.235333174369796e-09
132 3.583839740754439e-10 -3.3408108978262682e-09 -3.3408103972464844e-09
147 4.414211834297122e-09 -6.743263522189279e-09 3.0421936299712258e-09
226 4.414210852788251e-09 3.0421949147708163e-09 -6.743263126999694e-09
249 9.453713691869727e-09 1.5955262998091322e-09 1.595524477154996e-09
151 1.6305520012958055e-09 -3.762736171524621e-09 3.222856475498742e-10
230 1.6305523850046894e-09 3.2228773733749606e-10 -3.762736072679321e-09
136 -1.8675703860653112e-16 -1.065263295349033e-09 -1.0652632504327833e-09
155 -1.630551442589925e-09 -3.762736770455439e-09 3.222847873191957e-10
234 -1.6305516167789094e-09 3.222846545858599e-10 -3.762736380097875e-09
253 -4.367514288931218e-16 -1.941931066011465e-09 -1.9419302397888704e-09
140 -3.5838678663609753e-10 -3.340810240630613e-09 -3.3408100970168147e-09
159 -4.414212160682745e-09 -6.7432626541970645e-09 3.042193782408519e-09
238 -4.4142120850343246e-09 3.042193609835559e-09 -6.7432621707933134e-09
257 -9.453710806887184e-09 1.5955265467007553e-09 1.5955246885864218e-09
144 -6.211174284816366e-09 4.0754755554496344e-16 9.340475796352649e-09
148 6.211170310817922e-09 4.4129707526644386e-16 9.340475955907375e-09
163 2.5389501197900557e-15 -3.4554180536567375e-10 5.0054574112499006e-09
164 6.563214829697292e-10 3.2249065078070277e-09 -3.22490260452582e-09
168 -6.563214182548693e-10 3.2249011989722536e-09 -3.224902227170222e-09
242 1.1678224945775489e-15 7.798334540527908e-16 1.4137531551296367e-09
261 -2.77238382022216e-09 -4.2353298525827255e-09 4.23533300913128e-09
262 1.683177360605698e-15 -5.005457337374489e-09 3.4554035873737867e-10
265 2.772380696954478e-09 -4.235329266420587e-09 4.235329410092101e-09
152 6.679545256551339e-09 -4.042462481229977e-16 4.564114713632488e-09
167 4.414210445130423e-09 6.743266488626389e-09 3.042196206704001e-09
172 3.5838618107011144e-10 3.340809910412144e-09 -3.3408066428276926e-09
246 1.177444604178871e-08 -1.5684673164220386e-17 1.615989447044563e-09
266 4.414211099460082e-09 -3.0421961173516917e-09 -6.74326637341076e-09
269 9.453712909824629e-09 -1.5955241262467946e-09 1.595524486315547e-09
171 1.6305513789939187e-09 3.762736587886436e-09 3.2228543597069755e-10
250 2.05274156596607e-09 -2.364567212499424e-16 4.028214097222377e-09
270 1.6305510896168586e-09 -3.2228730144486884e-10 -3.762737419628909e-09
156 -2.127611832226304e-17 -2.3374641711470624e-16 3.7561409669754e-09
175 -1.6305514100755098e-09 3.762736179452152e-09 3.2228580295834393e-10
176 1.74345969585211e-16 1.0652636047392536e-09 -1.0652625089221985e-09
254 -2.0527414060168437e-09 5.9534115850986e-16 4.028213797933168e-09
273 -4.7280262938362304e-17 1.941931817915397e-09 -1.941930196202378e-09
274 -1.630551158911994e-09 -3.2228746692578913e-10 -3.762736563560648e-09
160 -6.679546749721143e-09 -1.4509130689209933e-15 4.564115304044772e-09
179 -4.414208706859538e-09 6.743265216787316e-09 3.042193420714507e-09
180 -3.583843443150151e-10 3.340809246415334e-09 -3.3408110609431753e-09
258 -1.1774444476978393e-08 -6.619236811370722e-16 1.6159893797856186e-09
277 -9.453716549075117e-09 -1.5955246554902377e-09 1.595524478780255e-09
278 -4.414207654873687e-09 -3.0421960803770484e-09 -6.74326439588375e-09
183 -2.3332809760081798e-15 -2.812802355336593e-09 3.325771634233845e-09
184 -9.995836905519415e-10 -3.0357183485168753e-09 4.359010685420373e-09
188 9.995857043956412e-10 -3.0357173788282323e-09 4.359011325476933e-09
281 -1.9738856008930482e-10 1.055462891741331e-09 2.649760879130735e-09
282 7.564842070137969e-16 1.8175244671013856e-09 1.7956240483672188e-09
285 1.9738458618320486e-10 1.0554638792431822e-09 2.6497651509024914e-09
187 -5.3559436172466326e-09 -3.837263757964569e-09 -1.8623767600904555e-09
192 1.3186924574090709e-09 -4.339977221266118e-09 1.2261697656805444e-09
286 6.990688819016057e-10 -1.7629320892823698e-09 4.1353543462643266e-10
289 1.2193948729889541e-09 3.743952997557797e-10 -1.226627869467184e-09
290 -4.461405072153322e-10 6.007280708756903e-10 -4.3212127889000215e-09
191 3.527543965062457e-09 -1.9831950592524705e-09 -4.2689639766962096e-10
195 -3.527544069660804e-09 -1.983193976412093e-09 -4.268973845938808e-10
196 -6.1464341819871e-17 3.462220923463341e-09 -3.979502977925107e-09
293 -2.895916104974691e-17 1.394806836774023e-09 -1.1109707649746653e-09
294 4.461407709505489e-10 6.007281657317179e-10 -4.321213062830045e-09
199 5.355945213195602e-09 -3.83726353020697e-09 -1.8623762304557034e-09
200 -1.3186921901278345e-09 -4.339977007913932e-09 1.2261711459687207e-09
297 -1.21939442539804e-09 3.743973416721354e-10 -1.2266278397692687e-09
298 -6.990712872849827e-10 -1.7629370602110144e-09 4.1353841195324035e-10
203 -7.943084173644868e-16 1.4184078881508693e-17 1.0231698229373193e-15
204 2.3882865147688958e-09 4.025983643853194e-09 7.821928499865314e-16
208 -2.388291974032475e-09 4.025987306005624e-09 5.864784178155058e-17
223 2.647694724548289e-15 4.8647003102924955e-09 -2.1630720294300754e-16
301 6.669309919440854e-11 6.501036154024817e-16 1.5665406867820288e-09
302 1.4846002562645764e-15 -1.8175258683701786e-09 -1.7956241299256723e-09
303 -4.869867082651317e-16 -3.9479019553532527e-16 -4.021450265378348e-09
304 -9.995832532095094e-10 3.0357181233446227e-09 -4.35900966889472e-09
305 -6.669224205495425e-11 3.8519100933914797e-17 1.5665459626688744e-09
308 9.995832779023654e-10 3.0357185024478366e-09 -4.359010381533871e-09
321 -1.973907704415972e-10 -1.0554623444722877e-09 -2.6497638817209134e-09
323 4.255223664452608e-17 2.8127993873180873e-09 -3.3257686006139746e-09
325 1.9738472665729857e-10 -1.0554603911902648e-09 -2.6497643550407426e-09
207 -5.329844112292522e-10 1.9384907804728544e-16 7.997705805535573e-16
212 -3.792554959014346e-09 -3.2735941123924983e-09 2.4078766721050727e-16
227 7.98653114595014e-09 2.856384159211478e-09 4.19519989314414e-17
306 6.990728762470263e-10 1.762932578042088e-09 -4.1353611886048786e-10
307 -3.251144886824268e-09 -2.3640131469181153e-16 -1.1936453040191941e-09
309 -6.3451271974388345e-09 9.456052587672461e-18 -3.2447610748424087e-09
312 1.3186921887899968e-09 4.3399776822486815e-09 -1.2261714122157013e-09
327 -5.355942818825685e-09 3.837265902180193e-09 1.8623782927570552e-09
329 1.2193914412031277e-09 -3.7439556227205213e-10 1.2266294401111194e-09
211 -3.769269222151234e-09 2.789535513363376e-16 -4.774521630534406e-16
231 1.5420863124737428e-10 -3.840031327788349e-09 -2.7453949553857643e-17
310 -4.4613692951215074e-10 -6.007299053498924e-10 4.3212157876506984e-09
311 2.1643390462117995e-09 -2.1276118322263038e-16 4.329300889914145e-09
215 3.769269146807549e-09 -1.5204021272434887e-16 -2.1329677995122902e-16
216 -8.350784097224691e-16 -2.681169491126543e-09 8.463351754493956e-18
235 -1.5420832226263765e-10 -3.840030457407495e-09 -5.930094658551849e-16
313 -6.066648738278614e-16 -4.018822349760796e-16 -3.6621363550427635e-09
314 4.461406877141712e-10 -6.007293663548949e-10 4.321215378085421e-09
315 -2.1643388225770792e-09 8.073428101647794e-17 4.329299363450942e-09
316 -1.569113726266899e-15 -3.462221236695083e-09 3.979502198687274e-09
331 3.527543375617714e-09 1.9831917570954815e-09 4.2689800782113794e-10
333 8.865049300942933e-18 -1.39480425296306e-09 1.1109657056817947e-09
335 -3.5275431950672467e-09 1.9831932762878986e-09 4.2689718869058254e-10
219 5.329913780775749e-10 2.7186151189558327e-16 2.127611832226304e-17
220 3.792552947786299e-09 -3.2735929623001023e-09 -6.424205726749978e-16
239 -7.986528274437293e-09 2.8563844274207744e-09 5.933672998764469e-16
317 6.345122711132885e-09 2.420158459157421e-16 -3.244760109881792e-09
318 -6.990677424472689e-10 1.7629363908997923e-09 -4.135358598532974e-10
319 3.251145216604102e-09 -3.522379588907992e-16 -1.1936412580106931e-09
320 -1.3186943526088605e-09 4.3399768985783234e-09 -1.226170982218534e-09
337 -1.2193912322072818e-09 -3.7439551909194663e-10 1.2266300018070424e-09
339 5.355944545107941e-09 3.837264414241692e-09 1.8623737573516608e-09
224 -6.211175523559255e-09 9.3404786400019e-09 3.497261949221987e-16
228 6.211172758790473e-09 9.340479808114073e-09 6.40943064458174e-16
243 2.3120048576859168e-15 1.4137528229857896e-09 7.604734791992213e-16
322 1.6642652554303532e-15 5.005457437254045e-09 -3.4554162274565813e-10
324 6.56321841117721e-10 -3.224905588796917e-09 3.2249072663597463e-09
328 -6.563220726247898e-10 -3.224906077093164e-09 3.2249033911950583e-09
341 -2.7723832008507152e-09 4.235330172315504e-09 -4.2353302325978386e-09
343 1.4089518355631968e-15 3.4554099982819395e-10 -5.00545665949372e-09
345 2.772381424073209e-09 4.235332456750981e-09 -4.235334465804322e-09
232 6.679545184774452e-09 4.564114425227173e-09 -3.253288404918953e-17
247 1.1774442027983645e-08 1.6159871043260033e-09 -4.442266970276148e-16
326 4.414211307995222e-09 3.04219326114362e-09 6.743265592074403e-09
332 3.5838352182543714e-10 -3.3408110868582666e-09 3.3408092584570263e-09
347 4.4142113121050465e-09 -6.7432634223120315e-09 -3.042196092603429e-09
349 9.453713762790122e-09 1.5955245200027344e-09 -1.5955240237077242e-09
251 2.0527416935304358e-09 4.0282130650559145e-09 1.532222192978079e-16
330 1.6305523441783345e-09 3.2228811735260946e-10 3.7627359744250244e-09
351 1.6305529287913836e-09 -3.762737022019905e-09 -3.2228748231496066e-10
236 4.846226951182136e-17 3.756142125092513e-09 6.283611585492836e-16
255 -2.0527424392383397e-09 4.02821367885681e-09 2.3164327651232106e-16
334 -1.6305525697209198e-09 3.222852741443015e-10 3.76273637684757e-09
336 3.7558258871661556e-16 -1.0652607647883895e-09 1.0652641128866498e-09
353 -8.008094535185115e-16 -1.9419336553446154e-09 1.941930614632705e-09
355 -1.63055194773052e-09 -3.762739906746194e-09 -3.222824154683294e-10
240 -6.679546311196705e-09 4.564114553470597e-09 -6.181894379190872e-16
259 -1.1774444261853196e-08 1.6159868479275382e-09 1.4184078881508693e-17
338 -4.414208104036185e-09 3.0421921772435923e-09 6.7432604990666415e-09
340 -3.5839086426327434e-10 -3.3408104864879806e-09 3.3408111033476613e-09
357 -9.45371135652024e-09 1.5955271530701275e-09 -1.5955251353849067e-09
359 -4.414208683219406e-09 -6.74325937531083e-09 -3.0421952105679613e-09
244 1.9456475796897557e-09 1.859979687601379e-15 -3.768430879140934e-16
248 -1.9456501258796655e-09 -1.5366708778746723e-15 5.108484659668365e-16
263 -1.1347263105206954e-16 -1.4137524636557913e-09 4.3291452474255745e-16
264 -6.211175464458927e-09 -9.340481344137438e-09 8.333146342886357e-16
268 6.2111712521199375e-09 -9.340477956663584e-09 -1.5731076156655008e-16
342 1.394767756681688e-15 -3.7395732967810935e-16 -1.4137520830496747e-09
344 -6.211174741070903e-09 -3.582126327425805e-16 -9.340477608996666e-09
348 6.2111707216575505e-09 -1.436161072818643e-16 -9.340477971782649e-09
361 -2.7723835790928187e-09 -4.235329970783383e-09 -4.235334531112494e-09
362 -7.564842070137969e-17 -5.005457405635369e-09 -3.455414950889482e-10
363 8.60500785478194e-16 -3.455420541780575e-10 -5.0054566778148216e-09
364 6.563225998181903e-10 3.224906462595276e-09 3.224903335005883e-09
365 2.772382224088502e-09 -4.235330799400526e-09 -4.235330600942946e-09
368 -6.563205041205356e-10 3.224907496638636e-09 3.2249070263085245e-09
252 1.1072671356535256e-08 1.9097717145083414e-16 -2.8861737851700093e-16
267 1.1774445110947156e-08 -1.6159892085877954e-09 2.5523954445631525e-16
272 6.679545188143694e-09 -4.564113638422056e-09 4.120793502787528e-16
346 1.1774444727563787e-08 -1.9650859283756834e-16 -1.6159883523264047e-09
352 6.679544478407785e-09 2.273515768637656e-17 -4.564114777945651e-09
366 4.414211005271319e-09 -3.0421965029443984e-09 6.743266333488026e-09
367 4.41421186385827e-09 6.743265731194112e-09 -3.0421962691748954e-09
369 9.453713134056268e-09 -1.5955243670806339e-09 -1.5955245562016856e-09
372 3.5838311573261937e-10 3.3408104479261704e-09 3.3408106255538243e-09
271 2.0527420427397753e-09 -4.02821481611601e-09 4.308598648785368e-16
350 2.052741350924256e-09 8.014004568052411e-16 -4.028215402284608e-09
370 1.6305514925897265e-09 -3.2228725611306985e-10 3.76273693391886e-09
371 1.630552500610473e-09 3.7627370042736155e-09 -3.2228710495936207e-10
256 2.8368157763017385e-17 6.520243760843527e-16 -7.62440412012868e-17
275 -2.0527414288443456e-09 -4.028214643398424e-09 3.9771981729649624e-16
276 -9.396952258999508e-17 -3.756145852725696e-09 -1.5878596117678514e-17
354 -2.052741347978474e-09 2.0714272736749893e-15 -4.028216668660898e-09
356 -2.2369474402712666e-16 6.062631762814124e-16 -3.756140009827108e-09
373 5.910032867295288e-19 1.9419315040926516e-09 1.941930777158609e-09
374 -1.6305511524673349e-09 -3.2228761086279274e-10 3.762736747752826e-09
375 -1.6305522769203461e-09 3.762737378084205e-09 -3.222872351093671e-10
376 -2.334462982581639e-17 1.065263330850785e-09 1.0652645544584492e-09
260 -1.1072671556167394e-08 -8.870959333810227e-16 2.0980616678898273e-16
279 -1.1774438295084014e-08 -1.6159883328232962e-09 3.7824210350689844e-16
280 -6.679547811864863e-09 -4.564113919324071e-09 6.048918639676728e-16
358 -1.1774444859948523e-08 -1.0543498635254794e-15 -1.6159877485796095e-09
360 -6.679542058041552e-09 -8.740938610729732e-16 -4.564115427564459e-09
377 -9.453716781930412e-09 -1.5955246472161918e-09 -1.595523895460011e-09
378 -4.4142077071774775e-09 -3.0421964259939235e-09 6.743262422523776e-09
379 -4.414208832152234e-09 6.7432646733597935e-09 -3.042193623133133e-09
380 -3.5838500184511016e-10 3.340809377471467e-09 3.3408109931578685e-09
283 5.021163924054077e-15 -4.864700982854236e-09 6.249859757164768e-16
284 2.3882865005848166e-09 -4.02598296685893e-09 6.199624477792758e-16
288 -2.388291741528088e-09 -4.025989385459359e-09 -1.705529289598336e-16
381 -1.9738878821657351e-10 1.0554624371120529e-09 -2.6497636561074286e-09
382 1.8581143334776386e-15 1.8175242818218554e-09 -1.7956247658452089e-09
383 -2.45857367279484e-16 -2.8128027625378575e-09 -3.325768535603613e-09
384 -9.99584177390899e-10 -3.035718603830295e-09 -4.359007919524992e-09
385 1.973821624233194e-10 1.0554638099506982e-09 -2.649765976374789e-09
388 9.995826128666827e-10 -3.035716677406601e-09 -4.359011064119581e-09
287 7.986531050590967e-09 -2.856383596188503e-09 -1.7405046794184625e-16
292 -3.792553929486621e-09 3.2735927814530966e-09 1.7730098601885864e-16
386 6.99071978906579e-10 -1.762930354983225e-09 -4.1353625479124377e-10
387 -5.355943787788019e-09 -3.837268606300768e-09 1.8623807626890724e-09
389 1.2193960060067514e-09 3.7439524597448063e-10 1.2266254321696294e-09
392 1.3186923683984155e-09 -4.33997602351023e-09 -1.2261711772595744e-09
291 1.5420610528579868e-10 3.840033857522512e-09 4.30250392739097e-16
390 -4.4613690948282425e-10 6.007274568232754e-10 4.321215321349105e-09
295 -1.5420612406285036e-10 3.840033662796163e-09 2.328829982504998e-16
296 -3.2412836506572595e-18 2.681169891826771e-09 2.1867121608992567e-16
391 3.5275442550049755e-09 -1.9831943940183474e-09 4.268963251101159e-10
393 1.6548092028426806e-17 1.3948082770490328e-09 1.1109706054037777e-09
394 4.4613707718000687e-10 6.007281004258547e-10 4.321215251906219e-09
395 -3.527543945720951e-09 -1.983193757680853e-09 4.268975734101965e-10
396 -7.771693220493304e-16 3.4622210842370126e-09 3.979500402180416e-09
299 -7.986529000189328e-09 -2.856379384588269e-09 6.430115759617273e-16
300 3.792554318913924e-09 3.27359151079603e-09 -1.8616603531980157e-16
397 -1.2193943988028922e-09 3.7439626427314366e-10 1.2266254564007642e-09
398 -6.990710556116943e-10 -1.7629371159130744e-09 -4.1353656447696605e-10
399 5.355945586709679e-09 -3.837262154351319e-09 1.862378091820555e-09
400 -1.318692968479163e-09 -4.339977169257829e-09 -1.2261703492039458e-09
401 9.026161950454063e-10 -3.6642203777230786e-16 -1.1771981101994897e-08
402 -1.478690223397281e-15 6.084686078213152e-09 2.555344514321729e-09
403 3.522379588907992e-16 2.352193081183525e-16 -6.317892562703646e-10
405 -9.026195117558513e-10 -2.4526636399275444e-16 -1.1771977261655539e-08
408 -5.4832340566793754e-09 3.2418483956679596e-10 -3.241856049160523e-10
423 5.703181716939953e-16 -2.555345238891759e-09 -6.08468127690245e-09
425 -5.857905063014434e-09 -6.598007103059059e-10 6.597972836688494e-10
406 -1.4102973330380605e-11 4.508772306525887e-09 1.3530549243404594e-09
407 -1.1701837714503546e-08 -3.546042806443061e-16 9.686102343818256e-09
409 -2.528900490982845e-09 -2.45857367279484e-16 7.587960665142244e-09
412 -9.177258456369951e-09 3.825728432073162e-10 -3.8257277819695464e-10
427 -1.4102977993765915e-11 -1.3530564987385862e-09 -4.508770814201033e-09
429 5.202630064905749e-10 1.6289553390225211e-09 -1.6289578619216929e-09
411 -7.177886756786423e-10 -1.3994957829755243e-15 -7.748107047624202e-10
410 -2.6819569776841585e-09 8.063458020996472e-10 2.8666648364134555e-09
413 -1.7499607320061348e-15 -5.200828923219854e-16 1.2195461693777545e-08
414 2.6819606868542608e-09 8.063462597111898e-10 2.8666654329689407e-09
415 7.177887791411552e-10 -5.413590106442484e-16 -7.748095499419979e-10
416 -3.2682481756142946e-16 -4.594252841725791e-09 4.594254170301179e-09
431 -2.6819562164112523e-09 -2.86666528546514e-09 -8.063461380965588e-10
433 -4.1734297330118765e-16 -2.9957305107598853e-09 2.995729096899952e-09
435 2.6819559744779027e-09 -2.86666521238389e-09 -8.063455961603965e-10
404 5.483231667253087e-09 3.241825281529416e-10 -3.2418600679828727e-10
421 5.857908268616261e-09 -6.598001113240747e-10 6.597962016895822e-10
417 2.5289014312690743e-09 -3.1441374854010934e-16 7.587960097483588e-09
418 1.4104952997468195e-11 4.508769915936062e-09 1.3530559704451345e-09
419 1.1701840986768697e-08 4.0838327113010443e-16 9.68610124999645e-09
420 9.177257292241227e-09 3.8257390616539654e-10 -3.825729135367073e-10
437 -5.202631314808442e-10 1.6289543960583084e-09 -1.6289568872664439e-09
439 1.4099971430764352e-11 -1.3530553050677779e-09 -4.508770243647384e-09
422 -5.910032867295288e-17 3.3257738327660718e-09 -2.8128021851276465e-09
424 -9.995837331041783e-10 4.3590107374286626e-09 -3.0357179797308243e-09
428 9.99584455014693e-10 4.359011166497048e-09 -3.0357172179275874e-09
441 -1.973877102265785e-10 2.649763070570922e-09 1.0554631701038793e-09
443 1.1630944682837127e-15 1.7956243521429081e-09 1.817523796608157e-09
445 1.9738394789965518e-10 2.6497638725623824e-09 1.0554632265700876e-09
426 -5.3559434804247546e-09 -1.8623772831249012e-09 -3.837263852831069e-09
432 1.3186922721295404e-09 1.226173840352705e-09 -4.339977322918683e-09
447 6.990724509704543e-10 4.1353498782794786e-10 -1.762932507564946e-09
449 1.219394370730236e-09 -1.2266271530234496e-09 3.7440077953825427e-10
451 -4.4614156969149093e-10 -4.321215025256459e-09 6.007273186762572e-10
430 3.527544161579779e-09 -4.26895898862847e-10 -1.98319358824529e-09
434 -3.5275430573460493e-09 -4.268948955889349e-10 -1.9831957574004977e-09
436 -3.9996147429420864e-16 -3.979502815879394e-09 3.4622219398643296e-09
453 6.235084674996529e-16 -1.1109708831753225e-09 1.3948012423369109e-09
455 4.46141669866548e-10 -4.321212760236362e-09 6.007280222656701e-10
438 5.355945385768562e-09 -1.862376459469477e-09 -3.837262915563552e-09
440 -1.3186927007546743e-09 1.2261717472707013e-09 -4.3399771444356905e-09
457 -1.2193963833180536e-09 -1.2266300495305578e-09 3.743952634090776e-10
459 -6.990669942371079e-10 4.135383924501319e-10 -1.7629329880136804e-09
442 1.8202901231269486e-15 1.130293785870224e-16 -4.864701706833262e-09
444 2.3882872310648793e-09 -1.681561335993547e-15 -4.02598236639959e-09
448 -2.3882915549188005e-09 -5.81041649298912e-16 -4.0259843068619205e-09
461 -1.9738725397204115e-10 -2.6497648072340804e-09 1.0554601806615042e-09
462 8.510447328905215e-16 -3.3257696437347757e-09 -2.8128029191537287e-09
463 9.077810484165563e-16 -1.7956244248363126e-09 1.8175250049143767e-09
464 -9.995842599836083e-10 -4.3590100684129414e-09 -3.03571596322761e-09
465 1.9738459711676567e-10 -2.649764681244049e-09 1.055463208306701e-09
468 9.995850174836022e-10 -4.359011443266658e-09 -3.035717708898951e-09
446 7.986531997757998e-09 -4.103040318119754e-16 -2.856384517451814e-09
452 -3.792553255511973e-09 -1.672816334235221e-16 3.2735881686828323e-09
466 -5.3559434420157155e-09 1.8623795494701379e-09 -3.837264645303199e-09
467 6.990722059995919e-10 -4.1353543270567197e-10 -1.7629322893369824e-09
469 1.2193928000287655e-09 1.2266288168454525e-09 3.74396767807944e-10
472 1.3186920294515731e-09 -1.2261721629283919e-09 -4.3399775459693265e-09
450 1.542058677336436e-10 -6.192236936708638e-16 3.840033061441085e-09
471 -4.4614080596749365e-10 4.321214925967906e-09 6.007282001576593e-10
454 -1.542071211685049e-10 6.031696434524375e-17 3.8400332877676405e-09
456 5.499285583018265e-16 4.0107883988318164e-16 2.68117554483785e-09
470 3.5275442138726503e-09 4.268969409401579e-10 -1.9831938295246904e-09
473 8.274046014213403e-18 1.110970646774008e-09 1.3948020413733545e-09
474 -3.527544183221162e-09 4.268967553244693e-10 -1.9831944895068333e-09
475 4.4614182485715995e-10 4.321211041007801e-09 6.007284443897675e-10
476 -8.782308840800798e-16 3.979503955065933e-09 3.4622214898915106e-09
458 -7.98652800257578e-09 -6.548316416963179e-16 -2.8563842757314697e-09
460 3.792551574885663e-09 7.570752103005265e-16 3.2735931638322232e-09
477 -1.219394305424373e-09 1.2266308936310021e-09 3.7439654440870156e-10
478 5.355940235765922e-09 1.8623734799448757e-09 -3.837263714599996e-09
479 -6.990716649360829e-10 -4.1353515316111735e-10 -1.7629325518901925e-09
480 -1.3186918036116849e-09 -1.2261726633214672e-09 -4.339977243133239e-09
482 -2.3557391009039017e-15 -6.084684213006779e-09 2.555344769635149e-09
483 1.4511346951535168e-15 2.555348031973292e-09 -6.084682404536721e-09
485 -5.857905332511933e-09 6.597961799702114e-10 6.597968348018531e-10
488 -5.483234746971214e-09 -3.241856607658629e-10 -3.241843618883895e-10
486 -1.410318000607686e-11 -4.508770680084842e-09 1.353054896563305e-09
487 -1.4103140732061571e-11 1.3530543504866568e-09 -4.508771285530772e-09
489 5.202626165011267e-10 -1.628958295036273e-09 -1.6289579064516118e-09
492 -9.177257617736287e-09 -3.825726889554584e-10 -3.8257277612844316e-10
490 -2.6819570075148184e-09 -8.063419440301914e-10 2.8666656762291257e-09
491 -2.6819568108736253e-09 2.8666651401891446e-09 -8.063454983239578e-10
493 -2.0241862570486362e-17 2.9957273394547177e-09 2.9957287508813795e-09
494 2.6819619210630466e-09 -8.063472277704979e-10 2.8666657272885774e-09
495 2.681957063994879e-09 2.8666654362702483e-09 -8.063465717570019e-10
496 -5.573160993859457e-16 4.5942551897818486e-09 4.594254119770398e-09
481 5.857908698866654e-09 6.59803128839106e-10 6.597966761913461e-10
484 5.483231213362563e-09 -3.2418493353631856e-10 -3.2418650324104813e-10
497 -5.202665850085502e-10 -1.6289535294812703e-09 -1.6289577527907573e-09
498 1.4105801678187939e-11 -4.508770428926914e-09 1.3530546572358315e-09
499 1.4105879690621788e-11 1.353055872338589e-09 -4.508768335593273e-09
500 9.177256402781281e-09 -3.825733035988766e-10 -3.825738721440384e-10
