LAMMPS data file via write_data, version 29 Aug 2024, timestep = 26, units = metal

500 atoms
3 atom types

0 17.55182305786145 xlo xhi
0 17.55182305786145 ylo yhi
0 17.55182305786145 zlo zhi

Masses

1 56.6411
2 58.71
3 58.71

Atoms # atomic

1 2 0.0023581352129740728 0.0023581352129745576 0 0 0 0
2 3 1.7528241705731715 1.7528241705731704 0 0 0 0
3 1 1.752537691042743 0.0026446147434023254 1.749830590463348 0 0 0
4 1 0.0026446147434022963 1.752537691042742 1.7498305904633489 0 0 0
5 1 3.5080472842131427 0.002629239565267032 0 0 0 0
8 1 3.5074754049366823 1.7549572913165787 1.7523386045272287 0 0 0
21 1 0.0026292395652665044 3.508047284213143 0 0 0 0
23 1 1.7549572913165792 3.5074754049366828 1.7523386045272298 0 0 0
25 1 3.507552584683551 3.507552584683551 0 0 0 0
101 1 0.0002398390098882363 0.000239839009888386 3.510315730571294 0 0 0
102 1 1.7549424667762565 1.7549424667762554 3.510315730571294 0 0 0
105 1 3.509858273821075 0.0002342300863947249 3.509792793732405 0 0 0
121 1 0.0002342300863936746 3.509858273821075 3.509792793732405 0 0 0
125 1 3.5100242584911916 3.5100242584911925 3.509967610457257 0 0 0
6 1 5.265918782483202 1.7552003684544273 0 0 0 0
7 1 5.265378821320325 0.00023222633605452403 1.754955862752986 0 0 0
9 1 7.020889616210797 5.841680834408355e-07 5.383025502622227e-16 0 0 0
12 1 7.020866257346555 1.755194624930287 1.7551936350500503 0 0 0
27 1 5.265187128941162 3.5100508509311354 1.7549330291115801 0 0 0
29 1 7.020837081007426 3.510379640923285 1.809735574876891e-17 0 0 0
106 1 5.265193657807626 1.7551524731334516 3.510005326947214 0 0 0
109 1 7.020636965406556 3.2079771041956765e-05 3.510271950106127 0 0 0
129 1 7.0206025002553485 3.51031276174475 3.510250022009443 0 0 0
10 1 8.775968950463422 1.7551995339626265 5.694067276703549e-16 0 0 0
14 1 12.2861157474368 1.7551817216180607 3.9199176227557283e-16 0 0 0
16 1 10.531062125455119 1.7551902988208639 1.755205789934591 0 0 0
31 1 8.775944606640683 3.510384556030633 1.755193350342203 0 0 0
33 1 10.531092783741379 3.510385253116745 1.0451534540676191e-16 0 0 0
35 1 12.286338240060433 3.510275932513142 1.755159002732944 0 0 0
110 1 8.77591390848907 1.7551842345190227 3.510379431131737 0 0 0
114 1 12.28636839824104 1.7551502260151026 3.5102719501061275 0 0 0
133 1 10.531130934042126 3.5103432823566525 3.51035229761616 0 0 0
18 1 15.798958079434454 1.7525530662208775 0 0 0 0
19 1 15.799529958710915 0.00022501446956608404 1.7523386045272304 0 0 0
20 1 14.041626542327272 1.7549500794500907 1.754955862752987 0 0 0
37 1 14.04161081769458 3.5101076489124967 0 0 0 0
39 1 15.79716384006196 3.5098415235856364 1.754703838266422 0 0 0
117 1 14.04181170583997 2.9832652692916622e-05 3.510005326947214 0 0 0
118 1 15.797147089826522 1.75494807569975 3.5097927937324056 0 0 0
137 1 14.041674967276723 3.510214608852964 3.510144455899289 0 0 0
22 1 1.7552003684544268 5.265918782483202 3.5797319762503504e-16 0 0 0
24 1 0.0002322263360525761 5.265378821320324 1.7549558627529869 0 0 0
28 1 3.510050850931135 5.265187128941162 1.7549330291115803 0 0 0
41 1 5.841680822165166e-07 7.020889616210798 0 0 0 0
43 1 1.7551946249302872 7.020866257346555 1.7551936350500508 0 0 0
45 1 3.510379640923284 7.020837081007426 2.8135479029762006e-16 0 0 0
122 1 1.7551524731334518 5.265193657807625 3.5100053269472142 0 0 0
141 1 3.207977104221384e-05 7.020636965406557 3.5102719501061275 0 0 0
145 1 3.5103127617447494 7.020602500255349 3.510250022009443 0 0 0
26 1 5.265180358411 5.2651803584109995 0 0 0 0
32 1 7.020591740122773 5.265417087865775 1.7551401282269352 0 0 0
47 1 5.265417087865776 7.020591740122774 1.755140128226935 0 0 0
49 1 7.020563933847529 7.02056393384753 0 0 0 0
126 1 5.26538121547807 5.26538121547807 3.5102192517054496 0 0 0
149 1 7.020652973663324 7.020652973663325 3.5103106195431 0 0 0
51 1 8.775865164425227 7.020671050285995 1.7551559576012998 0 0 0
130 1 8.775877719695604 5.265506199957305 3.5103264863878993 0 0 0
52 1 7.020671050285995 8.775865164425225 1.7551559576013005 0 0 0
146 1 5.265506199957305 8.775877719695604 3.5103264863878993 0 0 0
50 1 8.775868887631507 8.775868887631505 2.0599577116146453e-16 0 0 0
150 1 8.77589036119486 8.775890361194861 3.5103288117268763 0 0 0
30 1 8.77591545564357 5.265551609919295 9.26493049422438e-16 0 0 0
34 1 12.286403637863353 5.265423407853426 0 0 0 0
36 1 10.531144157805917 5.265517430901324 1.7551692800287435 0 0 0
53 1 10.53114005547899 7.02068167446712 2.647694724548289e-19 0 0 0
55 1 12.28636734529593 7.020638018351667 1.7551520327224028 0 0 0
134 1 12.286373332118202 5.265464175156784 3.510303300885582 0 0 0
153 1 10.531118319197338 7.020686809772937 3.5103268816406064 0 0 0
54 1 12.286323689180477 8.775865308168607 4.2079434015142453e-19 0 0 0
56 1 10.531115755690784 8.775889607956813 1.7551577836431356 0 0 0
154 1 12.28631855387466 8.775887044450258 3.510326881640606 0 0 0
38 1 15.796897714735103 5.265394545953014 0 0 0 0
40 1 14.041655378315953 5.265349985331643 1.7551178418135518 0 0 0
57 1 14.041581955794172 7.0206017257842435 0 0 0 0
59 1 15.796729431134455 7.020667123587164 1.7551590027329445 0 0 0
138 1 15.796790754794632 5.265330396370871 3.5101444558992885 0 0 0
157 1 14.041541188490813 7.020632031529396 3.510303300885583 0 0 0
60 1 14.041487932746271 8.775861205841679 1.7551692800287435 0 0 0
158 1 15.796662081290943 8.77587442960547 3.5103522976161607 0 0 0
42 1 1.755199533962628 8.77596895046342 2.1395392915262961e-16 0 0 0
48 1 3.510384556030632 8.775944606640683 1.7551933503422021 0 0 0
62 1 1.7551817216180612 12.2861157474368 0 0 0 0
63 1 1.7551902988208647 10.531062125455119 1.7552057899345914 0 0 0
65 1 3.5103852531167448 10.531092783741379 0 0 0 0
68 1 3.510275932513141 12.286338240060433 1.755159002732944 0 0 0
142 1 1.7551842345190234 8.775913908489068 3.5103794311317364 0 0 0
162 1 1.7551502260151015 12.28636839824104 3.5102719501061275 0 0 0
165 1 3.5103432823566516 10.531130934042128 3.510352297616159 0 0 0
46 1 5.265551609919294 8.775915455643572 0 0 0 0
66 1 5.265423407853426 12.286403637863351 7.351292593012605e-16 0 0 0
67 1 5.2655174309013235 10.531144157805917 1.7551692800287428 0 0 0
69 1 7.020681674467118 10.53114005547899 4.4916249791444195e-19 0 0 0
72 1 7.020638018351667 12.286367345295929 1.755152032722402 0 0 0
166 1 5.265464175156783 12.2863733321182 3.5103033008855826 0 0 0
169 1 7.020686809772936 10.531118319197338 3.510326881640607 0 0 0
70 1 8.775865308168607 12.286323689180477 8.973794557702976e-18 0 0 0
71 1 8.775889607956813 10.531115755690784 1.7551577836431356 0 0 0
170 1 8.775887044450258 12.28631855387466 3.510326881640607 0 0 0
73 1 10.53113647601609 10.53113647601609 0 0 0 0
74 1 12.286441429800066 12.286441429800064 3.9952789687178804e-16 0 0 0
75 1 12.286334313361602 10.53114019922237 1.7551559576012998 0 0 0
76 1 10.531140199222369 12.286334313361602 1.7551559576013003 0 0 0
173 1 10.531115002452735 10.531115002452736 3.5103288117268754 0 0 0
174 1 12.286352389984271 12.286352389984271 3.5103106195430995 0 0 0
44 1 17.55181506482673 8.775943238192477 1.7552057899345919 -1 0 0
61 1 17.55180582968497 10.531036413184175 0 -1 0 0
64 1 17.551810738717307 12.286139106301041 1.7551936350500503 -1 0 0
161 1 17.551821129128573 10.531091455158528 3.510379431131738 -1 0 0
58 1 15.796620110530851 8.775912579906215 9.319009063533662e-17 0 0 0
77 1 14.0414537537283 10.531089908004024 3.45927591428143e-16 0 0 0
78 1 15.796625722724311 12.286168282640169 0 0 0 0
79 1 15.796620807616964 10.531060757006914 1.7551933503422026 0 0 0
80 1 14.04158827578182 12.286413623524822 1.755140128226934 0 0 0
177 1 14.041499163690291 10.531127643951994 3.510326486387899 0 0 0
178 1 15.796692601902848 12.286402863392247 3.510250022009443 0 0 0
82 1 1.752553066220878 15.798958079434453 0 0 0 0
83 1 1.7549500794500914 14.041626542327272 1.7549558627529864 0 0 0
84 1 0.00022501446956644258 15.799529958710913 1.7523386045272296 0 0 0
85 1 3.510107648912496 14.04161081769458 2.9464061836407596e-16 0 0 0
88 1 3.509841523585636 15.797163840061959 1.7547038382664217 0 0 0
181 1 2.9832652693491182e-05 14.04181170583997 3.5100053269472142 0 0 0
182 1 1.7549480756997502 15.79714708982652 3.509792793732405 0 0 0
185 1 3.5102146088529635 14.041674967276725 3.510144455899288 0 0 0
86 1 5.265394545953015 15.7968977147351 0 0 0 0
87 1 5.265349985331643 14.041655378315953 1.7551178418135522 0 0 0
89 1 7.0206017257842435 14.041581955794172 1.9531394778593892e-16 0 0 0
92 1 7.020667123587164 15.796729431134453 1.7551590027329442 0 0 0
186 1 5.265330396370872 15.79679075479463 3.5101444558992885 0 0 0
189 1 7.020632031529395 14.041541188490813 3.5103033008855817 0 0 0
91 1 8.775861205841679 14.041487932746271 1.7551692800287435 0 0 0
190 1 8.775874429605468 15.796662081290943 3.5103522976161594 0 0 0
11 1 8.775943238192477 17.55181506482673 1.7552057899345916 0 -1 0
13 1 10.531036413184175 17.55180582968497 0 0 -1 0
15 1 12.286139106301041 17.551810738717307 1.755193635050051 0 -1 0
113 1 10.531091455158528 17.551821129128573 3.5103794311317373 0 -1 0
90 1 8.775912579906217 15.796620110530851 4.470613268096889e-16 0 0 0
93 1 10.531089908004024 14.041453753728302 6.377318000753391e-16 0 0 0
94 1 12.286168282640169 15.796625722724311 0 0 0 0
95 1 12.286413623524824 14.041588275781821 1.7551401282269343 0 0 0
96 1 10.531060757006914 15.796620807616964 1.755193350342202 0 0 0
193 1 10.531127643951992 14.04149916369029 3.5103264863878993 0 0 0
194 1 12.286402863392249 15.796692601902846 3.510250022009443 0 0 0
17 1 14.041086581164395 17.551804995193173 2.1595752063891027e-16 0 -1 0
81 1 17.55180499519317 14.041086581164395 9.157085838747663e-16 -1 0 0
97 1 14.041825005236598 14.041825005236598 0 0 0 0
98 1 15.799452778964044 15.799452778964044 0 0 0 0
99 1 15.796954512716463 14.041818234706435 1.754933029111579 0 0 0
100 1 14.041818234706435 15.79695451271646 1.7549330291115808 0 0 0
197 1 14.041624148169525 14.041624148169525 3.5102192517054505 0 0 0
198 1 15.796981105156403 15.796981105156403 3.509967610457257 0 0 0
108 1 3.5102630021112304 1.755148869885593 5.265539276980133 0 0 0
123 1 1.7551488698855937 3.5102630021112313 5.2655392769801335 0 0 0
202 1 1.7551894377656718 1.7551894377656716 7.020811775756864 0 0 0
225 1 3.5103463651731914 3.510346365173192 7.020718181700832 0 0 0
107 1 5.265310746184491 3.286588052301173e-05 5.265310528419779 0 0 0
112 1 7.020549221785905 1.7551656596983856 5.26537769163006 0 0 0
127 1 5.26539172242484 3.5102944560083773 5.265392930766963 0 0 0
206 1 5.265505568969659 1.755165094904337 7.020675672162246 0 0 0
209 1 7.020637595297483 1.6880838134121443e-05 7.020631121362382 0 0 0
229 1 7.0206649914790455 3.510325095190603 7.020658107601317 0 0 0
111 1 8.775861174382635 1.6357290801535554e-05 5.265504613370138 0 0 0
131 1 8.77586346270863 3.5103280443116267 5.265491016675855 0 0 0
210 1 8.77586528551471 1.755167468710464 7.020664004089035 0 0 0
115 1 12.28645614186169 1.6646087759791692e-05 5.265377691630061 0 0 0
116 1 10.53114418926496 1.7551659484953437 5.265504613370138 0 0 0
135 1 12.286388358728695 3.510307744069808 5.265446766589473 0 0 0
213 1 10.531140078132887 1.483707567979977e-05 7.020664004089034 0 0 0
214 1 12.286367768350113 1.7551654249480104 7.020631121362381 0 0 0
233 1 10.531119973537512 3.5103267534505878 7.020686239438082 0 0 0
104 1 17.5518225566625 1.7551828069850925 5.265740376739357 -1 0 0
221 1 17.55181683240889 3.5103730624100953 7.020756683536382 -1 0 0
119 1 15.796742361536365 3.343590055101674e-05 5.265539276980133 0 0 0
120 1 14.041694617463106 1.755149439905622 5.265310528419779 0 0 0
139 1 15.796776123400628 3.5102292402469697 5.265343255723708 0 0 0
217 1 14.041499794677938 1.7210881807062092e-05 7.0206756721622465 0 0 0
218 1 15.796632301237501 1.755188531238708 7.020756683536383 0 0 0
237 1 14.041527824924842 3.5103216198224763 7.020638175434523 0 0 0
124 1 3.286588052331143e-05 5.265310746184489 5.265310528419779 0 0 0
128 1 3.510294456008377 5.265391722424839 5.265392930766963 0 0 0
143 1 1.7551656596983862 7.020549221785906 5.26537769163006 0 0 0
222 1 1.7551650949043374 5.265505568969658 7.020675672162246 0 0 0
241 1 1.6880838134113522e-05 7.020637595297484 7.020631121362382 0 0 0
245 1 3.510325095190602 7.020664991479046 7.020658107601316 0 0 0
144 1 1.6357290801297813e-05 8.775861174382635 5.265504613370139 0 0 0
148 1 3.510328044311626 8.775863462708628 5.265491016675854 0 0 0
242 1 1.755167468710464 8.77586528551471 7.020664004089034 0 0 0
244 1 1.4807245095574042e-05 8.775886461976812 8.775911528930724 0 0 0
132 1 7.0206508761913975 5.265484581998673 5.265469607562911 0 0 0
147 1 5.265484581998674 7.020650876191398 5.26546960756291 0 0 0
226 1 5.265497311769388 5.265497311769388 7.020670465341992 0 0 0
249 1 7.020692198999905 7.020692198999906 7.02069732595271 0 0 0
151 1 8.775890650920616 7.020691527996711 5.26550847176298 0 0 0
230 1 8.77589078937016 5.26550492695069 7.02069631480251 0 0 0
152 1 7.020691527996711 8.775890650920616 5.265508471762981 0 0 0
246 1 5.265504926950692 8.77589078937016 7.02069631480251 0 0 0
250 1 8.775899552604285 8.775899552604285 7.02070965406395 0 0 0
136 1 10.53111972978869 5.265500518465286 5.265505202920602 0 0 0
155 1 12.286326644677438 7.020678718970158 5.265499398533778 0 0 0
234 1 12.286328126809366 5.265496592909304 7.020683875223368 0 0 0
253 1 10.53110857348416 7.020696326978684 7.0207061641932205 0 0 0
156 1 10.531107981887793 8.775897381759803 5.265514250714528 0 0 0
254 1 12.28630903666891 8.775896790163436 7.0207061641932205 0 0 0
140 1 14.041559145914517 5.265446217733078 5.265428116384524 0 0 0
159 1 15.796697619577788 7.020617004918902 5.2654467665894735 0 0 0
238 1 15.796683743825119 5.265477538722756 7.020638175434524 0 0 0
257 1 14.041508770738293 7.020677236838231 7.020683875223368 0 0 0
160 1 14.04150484518231 8.775885633858906 5.265505202920603 0 0 0
258 1 15.79667861019701 8.775885390110084 7.020686239438083 0 0 0
163 1 1.755165948495344 10.53114418926496 5.265504613370138 0 0 0
164 1 1.6646087759798343e-05 12.28645614186169 5.265377691630059 0 0 0
168 1 3.5103077440698067 12.286388358728694 5.2654467665894735 0 0 0
261 1 1.4837075680500604e-05 10.531140078132887 7.020664004089035 0 0 0
262 1 1.7551654249480106 12.286367768350113 7.020631121362382 0 0 0
265 1 3.5103267534505873 10.531119973537512 7.020686239438083 0 0 0
167 1 5.265500518465286 10.53111972978869 5.265505202920603 0 0 0
172 1 7.020678718970157 12.286326644677438 5.265499398533778 0 0 0
266 1 5.2654965929093045 12.286328126809366 7.0206838752233685 0 0 0
269 1 7.020696326978683 10.53110857348416 7.0207061641932205 0 0 0
171 1 8.775897381759805 10.531107981887793 5.265514250714527 0 0 0
270 1 8.775896790163436 12.286309036668912 7.020706164193221 0 0 0
175 1 12.286313835650885 10.53111471272698 5.26550847176298 0 0 0
176 1 10.53111471272698 12.286313835650887 5.26550847176298 0 0 0
273 1 10.53110581104331 10.531105811043311 7.020709654063951 0 0 0
274 1 12.28631316464769 12.28631316464769 7.020697325952711 0 0 0
276 1 10.53110594168923 12.286306349340244 8.775911528930724 0 0 0
179 1 15.796677319335968 10.531141900938966 5.265491016675854 0 0 0
180 1 14.041520781648922 12.286354487456197 5.265469607562911 0 0 0
277 1 14.041500436696904 10.531114574277433 7.020696314802511 0 0 0
278 1 15.796680268456992 12.286340372168551 7.020658107601317 0 0 0
103 1 1.7551828069850928 17.551822556662504 5.265740376739358 0 -1 0
205 1 3.510373062410095 17.551816832408893 7.020756683536382 0 -1 0
183 1 1.7551494399056218 14.041694617463106 5.265310528419779 0 0 0
184 1 3.34359005507607e-05 15.796742361536365 5.2655392769801335 0 0 0
188 1 3.5102292402469693 15.796776123400626 5.265343255723707 0 0 0
281 1 1.7210881806817022e-05 14.041499794677938 7.020675672162246 0 0 0
282 1 1.7551885312387072 15.796632301237501 7.020756683536383 0 0 0
285 1 3.510321619822475 14.041527824924842 7.020638175434525 0 0 0
187 1 5.265446217733078 14.041559145914519 5.265428116384524 0 0 0
192 1 7.0206170049189005 15.79669761957779 5.265446766589473 0 0 0
286 1 5.265477538722757 15.796683743825119 7.020638175434525 0 0 0
289 1 7.020677236838229 14.041508770738293 7.0206838752233685 0 0 0
191 1 8.775885633858907 14.04150484518231 5.265505202920602 0 0 0
290 1 8.775885390110085 15.79667861019701 7.020686239438083 0 0 0
195 1 12.2863544874562 14.041520781648922 5.265469607562911 0 0 0
196 1 10.531141900938966 15.79667731933597 5.265491016675855 0 0 0
293 1 10.531114574277433 14.041500436696904 7.020696314802511 0 0 0
294 1 12.286340372168551 15.796680268456994 7.020658107601317 0 0 0
295 1 12.286310005330469 14.04149902798213 8.775911528930724 0 0 0
201 1 17.551815925881925 17.551815925881925 7.020811775756863 -1 -1 0
199 1 15.796710907639218 14.041613641222755 5.265392930766964 0 0 0
200 1 14.041613641222755 15.796710907639218 5.265392930766963 0 0 0
297 1 14.041508051878209 14.041508051878207 7.020670465341992 0 0 0
298 1 15.796658998474406 15.796658998474404 7.020718181700833 0 0 0
208 1 3.510385485596074 1.7551830468741125 8.775911528930726 0 0 0
223 1 1.7551830468741128 3.5103854855960743 8.775911528930726 0 0 0
302 1 1.755189437765671 1.7551894377656703 10.531011282104586 0 0 0
308 1 3.510263002111231 1.755148869885593 12.286283780881318 0 0 0
323 1 1.7551488698855942 3.5102630021112318 12.28628378088132 0 0 0
325 1 3.5103463651731914 3.5103463651731923 10.531104876160619 0 0 0
207 1 5.2655466891052285 1.315821102724952e-07 8.775911528930726 0 0 0
212 1 7.020698917607908 1.7551671971510385 8.775911528930726 0 0 0
227 1 5.2655320283387885 3.5103431446764457 8.775911528930726 0 0 0
306 1 5.265505568969659 1.7551650949043367 10.531147385699207 0 0 0
307 1 5.26531074618449 3.2865880522761466e-05 12.286512529441671 0 0 0
309 1 7.020637595297483 1.688083813338548e-05 10.53119193649907 0 0 0
312 1 7.020549221785905 1.7551656596983851 12.28644536623139 0 0 0
327 1 5.26539172242484 3.5102944560083773 12.286430127094487 0 0 0
329 1 7.020664991479045 3.510325095190603 10.531164950260136 0 0 0
211 1 8.775886461976814 1.4807245095094457e-05 8.775911528930726 0 0 0
231 1 8.775890600339107 3.5103292534283677 8.775911528930726 0 0 0
310 1 8.77586528551471 1.7551674687104641 10.531159053772418 0 0 0
311 1 8.775861174382637 1.635729080126276e-05 12.286318444491313 0 0 0
331 1 8.77586346270863 3.5103280443116267 12.286332041185595 0 0 0
215 1 12.286306446039687 1.5108635105175843e-05 8.775911528930726 0 0 0
216 1 10.531118901670784 1.7551674985410493 8.775911528930726 0 0 0
235 1 12.286323275073414 3.5103275876211537 8.775911528930726 0 0 0
313 1 10.531140078132887 1.4837075681921319e-05 10.531159053772418 0 0 0
314 1 12.286367768350111 1.7551654249480098 10.53119193649907 0 0 0
315 1 12.28645614186169 1.664608775997864e-05 12.28644536623139 0 0 0
316 1 10.53114418926496 1.7551659484953435 12.286318444491313 0 0 0
333 1 10.531119973537512 3.5103267534505873 10.53113681842337 0 0 0
335 1 12.286388358728694 3.510307744069807 12.286376291271976 0 0 0
204 1 17.551809439700104 1.7551959239474924 8.775911528930726 -1 0 0
304 1 17.551822556662504 1.755182806985092 12.286082681122094 -1 0 0
321 1 17.55181683240889 3.5103730624100944 10.53106637432507 -1 0 0
220 1 14.041458674542367 1.7551821742040332 8.775911528930726 0 0 0
239 1 15.796634345656827 3.5103710179907686 8.775911528930726 0 0 0
317 1 14.041499794677938 1.7210881807744414e-05 10.531147385699205 0 0 0
318 1 15.796632301237503 1.755188531238708 10.53106637432507 0 0 0
319 1 15.796742361536364 3.343590055094306e-05 12.28628378088132 0 0 0
320 1 14.041694617463106 1.7551494399056216 12.286512529441673 0 0 0
337 1 14.041527824924842 3.5103216198224767 10.53118488242693 0 0 0
339 1 15.796776123400628 3.5102292402469693 12.286479802137743 0 0 0
224 1 1.3158211123001465e-07 5.265546689105227 8.775911528930726 0 0 0
228 1 3.5103431446764457 5.2655320283387885 8.775911528930726 0 0 0
243 1 1.7551671971510392 7.020698917607908 8.775911528930726 0 0 0
322 1 1.7551650949043378 5.265505568969659 10.531147385699205 0 0 0
324 1 3.286588052254978e-05 5.26531074618449 12.286512529441671 0 0 0
328 1 3.510294456008377 5.26539172242484 12.286430127094487 0 0 0
341 1 1.6880838134288648e-05 7.020637595297484 10.53119193649907 0 0 0
343 1 1.7551656596983858 7.020549221785905 12.286445366231389 0 0 0
345 1 3.510325095190602 7.0206649914790455 10.531164950260134 0 0 0
248 1 3.5103292534283677 8.775890600339107 8.775911528930726 0 0 0
342 1 1.7551674687104641 8.77586528551471 10.531159053772418 0 0 0
344 1 1.6357290800213018e-05 8.775861174382635 12.286318444491313 0 0 0
348 1 3.5103280443116254 8.77586346270863 12.286332041185595 0 0 0
232 1 7.020695358317129 5.2655063356654646 8.775911528930726 0 0 0
247 1 5.265506335665464 7.02069535831713 8.775911528930726 0 0 0
326 1 5.265497311769388 5.265497311769388 10.53115259251946 0 0 0
332 1 7.0206508761913975 5.265484581998673 12.28635345029854 0 0 0
347 1 5.265484581998674 7.020650876191398 12.286353450298542 0 0 0
349 1 7.020692198999905 7.020692198999905 10.531125731908741 0 0 0
251 1 8.775899421958366 7.020699014307353 8.775911528930726 0 0 0
330 1 8.77589078937016 5.265504926950691 10.531126743058941 0 0 0
351 1 8.775890650920617 7.02069152799671 12.286314586098472 0 0 0
252 1 7.020699014307352 8.775899421958366 8.775911528930726 0 0 0
346 1 5.265504926950691 8.77589078937016 10.531126743058941 0 0 0
352 1 7.02069152799671 8.775890650920616 12.286314586098472 0 0 0
350 1 8.775899552604287 8.775899552604285 10.531113403797502 0 0 0
236 1 10.531110543461693 5.265506125152491 8.775911528930726 0 0 0
255 1 12.286311640621943 7.020693723025653 8.775911528930726 0 0 0
334 1 12.286328126809366 5.265496592909304 10.531139182638084 0 0 0
336 1 10.531119729788688 5.265500518465287 12.28631785494085 0 0 0
353 1 10.53110857348416 7.020696326978685 10.531116893668232 0 0 0
355 1 12.286326644677438 7.020678718970159 12.286323659327673 0 0 0
256 1 10.531105530257683 8.775899833389913 8.775911528930726 0 0 0
354 1 12.286309036668912 8.775896790163436 10.531116893668232 0 0 0
356 1 10.531107981887791 8.775897381759805 12.286308807146924 0 0 0
240 1 14.04150328872558 5.265502074922014 8.775911528930726 0 0 0
259 1 15.796677776026442 7.020682088574181 8.775911528930726 0 0 0
338 1 15.796683743825119 5.265477538722755 10.53118488242693 0 0 0
340 1 14.041559145914519 5.265446217733078 12.286394941476926 0 0 0
357 1 14.041508770738293 7.02067723683823 10.531139182638084 0 0 0
359 1 15.796697619577788 7.020617004918902 12.286376291271976 0 0 0
260 1 14.041499238495105 8.775894820185902 8.775911528930726 0 0 0
358 1 15.79667861019701 8.775885390110084 10.53113681842337 0 0 0
360 1 14.04150484518231 8.775885633858907 12.286317854940847 0 0 0
263 1 1.7551674985410493 10.531118901670784 8.775911528930726 0 0 0
264 1 1.5108635105014254e-05 12.286306446039687 8.775911528930726 0 0 0
268 1 3.5103275876211533 12.286323275073414 8.775911528930726 0 0 0
361 1 1.4837075681060303e-05 10.531140078132886 10.531159053772418 0 0 0
362 1 1.7551654249480102 12.286367768350113 10.53119193649907 0 0 0
363 1 1.755165948495344 10.53114418926496 12.286318444491313 0 0 0
364 1 1.6646087759560845e-05 12.28645614186169 12.28644536623139 0 0 0
365 1 3.5103267534505873 10.53111997353751 10.53113681842337 0 0 0
368 1 3.5103077440698067 12.286388358728694 12.286376291271978 0 0 0
267 1 5.265506125152492 10.531110543461693 8.775911528930726 0 0 0
272 1 7.020693723025653 12.286311640621943 8.775911528930726 0 0 0
366 1 5.2654965929093045 12.286328126809366 10.531139182638084 0 0 0
367 1 5.265500518465287 10.53111972978869 12.28631785494085 0 0 0
369 1 7.020696326978684 10.53110857348416 10.531116893668232 0 0 0
372 1 7.020678718970157 12.28632664467744 12.286323659327673 0 0 0
271 1 8.775899833389913 10.531105530257683 8.775911528930726 0 0 0
370 1 8.775896790163436 12.28630903666891 10.531116893668232 0 0 0
371 1 8.775897381759805 10.531107981887793 12.286308807146925 0 0 0
275 1 12.286306349340244 10.53110594168923 8.775911528930726 0 0 0
373 1 10.53110581104331 10.531105811043311 10.531113403797502 0 0 0
374 1 12.286313164647693 12.28631316464769 10.531125731908741 0 0 0
375 1 12.286313835650885 10.53111471272698 12.28631458609847 0 0 0
376 1 10.53111471272698 12.286313835650885 12.286314586098472 0 0 0
279 1 15.796676110219229 10.53111476330849 8.775911528930726 0 0 0
280 1 14.04149902798213 12.286310005330469 8.775911528930726 0 0 0
377 1 14.041500436696904 10.531114574277435 10.53112674305894 0 0 0
378 1 15.796680268456994 12.286340372168551 10.531164950260134 0 0 0
379 1 15.796677319335968 10.531141900938966 12.286332041185593 0 0 0
380 1 14.04152078164892 12.2863544874562 12.28635345029854 0 0 0
203 1 1.7551959239474928 17.551809439700104 8.775911528930726 0 -1 0
303 1 1.7551828069850937 17.551822556662504 12.286082681122092 0 -1 0
305 1 3.5103730624100944 17.55181683240889 10.53106637432507 0 -1 0
283 1 1.7551821742040339 14.041458674542367 8.775911528930726 0 0 0
288 1 3.510371017990768 15.796634345656829 8.775911528930726 0 0 0
381 1 1.7210881806752732e-05 14.041499794677938 10.531147385699205 0 0 0
382 1 1.7551885312387083 15.796632301237501 10.53106637432507 0 0 0
383 1 1.7551494399056222 14.041694617463106 12.286512529441671 0 0 0
384 1 3.3435900551807524e-05 15.796742361536364 12.28628378088132 0 0 0
385 1 3.510321619822476 14.041527824924842 10.531184882426928 0 0 0
388 1 3.5102292402469693 15.796776123400628 12.286479802137743 0 0 0
287 1 5.265502074922015 14.04150328872558 8.775911528930726 0 0 0
292 1 7.020682088574181 15.796677776026442 8.775911528930726 0 0 0
386 1 5.265477538722756 15.79668374382512 10.531184882426928 0 0 0
387 1 5.265446217733078 14.041559145914517 12.286394941476926 0 0 0
389 1 7.02067723683823 14.041508770738293 10.531139182638084 0 0 0
392 1 7.0206170049189005 15.796697619577788 12.286376291271976 0 0 0
291 1 8.775894820185902 14.041499238495105 8.775911528930726 0 0 0
390 1 8.775885390110084 15.79667861019701 10.53113681842337 0 0 0
391 1 8.775885633858906 14.04150484518231 12.28631785494085 0 0 0
296 1 10.531114763308489 15.796676110219229 8.775911528930726 0 0 0
393 1 10.531114574277435 14.041500436696905 10.53112674305894 0 0 0
394 1 12.286340372168551 15.796680268456994 10.531164950260134 0 0 0
395 1 12.2863544874562 14.041520781648922 12.286353450298542 0 0 0
396 1 10.531141900938968 15.796677319335968 12.286332041185595 0 0 0
301 1 17.551815925881925 17.551815925881925 10.531011282104588 -1 -1 0
219 1 15.796619878051521 17.551822316773485 8.775911528930726 0 -1 0
284 1 17.551822316773485 15.796619878051521 8.775911528930726 -1 0 0
299 1 15.79666221897115 14.041473335308808 8.775911528930726 0 0 0
300 1 14.041473335308808 15.796662218971148 8.775911528930726 0 0 0
397 1 14.041508051878209 14.041508051878209 10.531152592519458 0 0 0
398 1 15.796658998474404 15.796658998474404 10.531104876160619 0 0 0
399 1 15.796710907639218 14.041613641222757 12.286430127094487 0 0 0
400 1 14.041613641222757 15.79671090763922 12.286430127094487 0 0 0
401 1 0.00023983900988903587 0.00023983900988807497 14.041507327290159 0 0 0
402 1 1.7549424667762565 1.7549424667762552 14.041507327290159 0 0 0
403 1 1.7525376910427435 0.0026446147434016974 15.801992467398103 0 0 0
404 1 0.002644614743401666 1.7525376910427415 15.801992467398103 0 0 0
405 1 3.5098582738210755 0.0002342300863954561 14.042030264129046 0 0 0
408 1 3.5074754049366823 1.7549572913165787 15.799484453334223 0 0 0
421 1 0.00023423008639459543 3.509858273821075 14.042030264129046 0 0 0
423 1 1.7549572913165794 3.5074754049366828 15.799484453334221 0 0 0
425 1 3.5100242584911916 3.510024258491193 14.041855447404194 0 0 0
406 1 5.265193657807627 1.7551524731334507 14.041817730914238 0 0 0
407 1 5.265378821320325 0.00023222633605420222 15.796867195108465 0 0 0
409 1 7.020636965406555 3.2079771041696266e-05 14.041551107755323 0 0 0
412 1 7.020866257346555 1.7551946249302872 15.7966294228114 0 0 0
427 1 5.265187128941162 3.510050850931135 15.796890028749871 0 0 0
429 1 7.0206025002553485 3.51031276174475 14.041573035852009 0 0 0
410 1 8.775913908489068 1.7551842345190223 14.041443626729714 0 0 0
414 1 12.28636839824104 1.7551502260151024 14.041551107755323 0 0 0
416 1 10.531062125455119 1.7551902988208632 15.79661726792686 0 0 0
431 1 8.775944606640682 3.510384556030633 15.796629707519248 0 0 0
433 1 10.531130934042126 3.510343282356653 14.041470760245291 0 0 0
435 1 12.286338240060433 3.510275932513142 15.796664055128506 0 0 0
417 1 14.041811705839969 2.983265269332039e-05 14.041817730914238 0 0 0
418 1 15.79714708982652 1.75494807569975 14.042030264129046 0 0 0
419 1 15.799529958710913 0.00022501446956571083 15.799484453334221 0 0 0
420 1 14.041626542327272 1.7549500794500914 15.796867195108465 0 0 0
437 1 14.041674967276723 3.5102146088529644 14.041678601962161 0 0 0
439 1 15.79716384006196 3.5098415235856373 15.797119219595029 0 0 0
422 1 1.7551524731334522 5.265193657807625 14.041817730914238 0 0 0
424 1 0.00023222633605260684 5.265378821320324 15.796867195108465 0 0 0
428 1 3.5100508509311346 5.265187128941162 15.796890028749871 0 0 0
441 1 3.20797710420568e-05 7.020636965406557 14.041551107755323 0 0 0
443 1 1.755194624930288 7.020866257346555 15.7966294228114 0 0 0
445 1 3.5103127617447494 7.020602500255349 14.041573035852009 0 0 0
426 1 5.26538121547807 5.26538121547807 14.041603806156003 0 0 0
432 1 7.020591740122773 5.265417087865775 15.796682929634517 0 0 0
447 1 5.265417087865776 7.020591740122773 15.796682929634516 0 0 0
449 1 7.020652973663324 7.020652973663325 14.041512438318353 0 0 0
430 1 8.775877719695604 5.265506199957305 14.041496571473552 0 0 0
451 1 8.775865164425227 7.020671050285995 15.796667100260152 0 0 0
446 1 5.265506199957305 8.775877719695602 14.041496571473552 0 0 0
452 1 7.020671050285995 8.775865164425227 15.79666710026015 0 0 0
450 1 8.77589036119486 8.77589036119486 14.041494246134576 0 0 0
434 1 12.2863733321182 5.265464175156783 14.04151975697587 0 0 0
436 1 10.531144157805917 5.265517430901324 15.796653777832708 0 0 0
453 1 10.531118319197338 7.020686809772936 14.041496176220845 0 0 0
455 1 12.28636734529593 7.020638018351668 15.796671025139048 0 0 0
454 1 12.28631855387466 8.775887044450258 14.041496176220846 0 0 0
456 1 10.531115755690784 8.775889607956811 15.796665274218315 0 0 0
438 1 15.796790754794632 5.265330396370871 14.041678601962161 0 0 0
440 1 14.041655378315953 5.265349985331642 15.796705216047899 0 0 0
457 1 14.041541188490811 7.020632031529397 14.04151975697587 0 0 0
459 1 15.796729431134455 7.020667123587165 15.796664055128506 0 0 0
458 1 15.796662081290945 8.77587442960547 14.04147076024529 0 0 0
460 1 14.04148793274627 8.775861205841679 15.796653777832708 0 0 0
442 1 1.7551842345190236 8.775913908489068 14.041443626729714 0 0 0
448 1 3.510384556030632 8.775944606640682 15.796629707519248 0 0 0
462 1 1.755150226015104 12.28636839824104 14.041551107755323 0 0 0
463 1 1.7551902988208647 10.531062125455119 15.79661726792686 0 0 0
465 1 3.5103432823566516 10.531130934042128 14.041470760245291 0 0 0
468 1 3.5102759325131414 12.286338240060433 15.796664055128506 0 0 0
466 1 5.265464175156783 12.2863733321182 14.04151975697587 0 0 0
467 1 5.265517430901324 10.531144157805917 15.796653777832708 0 0 0
469 1 7.020686809772936 10.531118319197338 14.041496176220846 0 0 0
472 1 7.020638018351667 12.286367345295929 15.796671025139048 0 0 0
470 1 8.77588704445026 12.28631855387466 14.041496176220846 0 0 0
471 1 8.775889607956811 10.531115755690784 15.796665274218315 0 0 0
473 1 10.531115002452735 10.531115002452736 14.041494246134576 0 0 0
474 1 12.286352389984273 12.286352389984273 14.041512438318351 0 0 0
475 1 12.286334313361602 10.53114019922237 15.796667100260152 0 0 0
476 1 10.531140199222369 12.286334313361602 15.79666710026015 0 0 0
444 1 17.55181506482673 8.775943238192477 15.796617267926859 -1 0 0
461 1 17.551821129128573 10.531091455158528 14.041443626729714 -1 0 0
464 1 17.551810738717307 12.28613910630104 15.7966294228114 -1 0 0
477 1 14.04149916369029 10.531127643951994 14.041496571473552 0 0 0
478 1 15.796692601902848 12.286402863392247 14.041573035852009 0 0 0
479 1 15.796620807616964 10.531060757006914 15.796629707519246 0 0 0
480 1 14.04158827578182 12.286413623524822 15.796682929634516 0 0 0
481 1 2.9832652692746145e-05 14.04181170583997 14.041817730914238 0 0 0
482 1 1.75494807569975 15.79714708982652 14.042030264129046 0 0 0
483 1 1.7549500794500912 14.041626542327272 15.796867195108465 0 0 0
484 1 0.0002250144695662488 15.799529958710913 15.799484453334223 0 0 0
485 1 3.5102146088529635 14.041674967276723 14.041678601962161 0 0 0
488 1 3.5098415235856364 15.797163840061959 15.797119219595029 0 0 0
486 1 5.265330396370873 15.79679075479463 14.041678601962163 0 0 0
487 1 5.2653499853316434 14.041655378315955 15.796705216047899 0 0 0
489 1 7.020632031529395 14.041541188490815 14.04151975697587 0 0 0
492 1 7.020667123587164 15.796729431134453 15.796664055128506 0 0 0
490 1 8.77587442960547 15.796662081290943 14.041470760245291 0 0 0
491 1 8.775861205841679 14.041487932746271 15.796653777832708 0 0 0
411 1 8.775943238192477 17.55181506482673 15.796617267926859 0 -1 0
413 1 10.531091455158526 17.551821129128573 14.041443626729714 0 -1 0
415 1 12.286139106301041 17.551810738717307 15.7966294228114 0 -1 0
493 1 10.531127643951992 14.04149916369029 14.041496571473552 0 0 0
494 1 12.286402863392247 15.796692601902846 14.041573035852009 0 0 0
495 1 12.286413623524824 14.041588275781821 15.796682929634516 0 0 0
496 1 10.531060757006914 15.796620807616963 15.79662970751925 0 0 0
497 1 14.041624148169525 14.041624148169525 14.041603806156001 0 0 0
498 1 15.796981105156403 15.796981105156403 14.041855447404194 0 0 0
499 1 15.79695451271646 14.041818234706433 15.796890028749871 0 0 0
500 1 14.041818234706435 15.79695451271646 15.796890028749871 0 0 0

Velocities

1 3.8801027790709346e-09 3.880100726434679e-09 -5.773039468110308e-16
2 -3.880104617320736e-09 -3.880100479548152e-09 -6.471595061774705e-16
3 -7.233192679985783e-10 7.233171285666803e-10 -3.943741822344625e-09
4 7.233202963442972e-10 -7.233165857301615e-10 -3.943743951729467e-09
5 -4.022906292989712e-09 -9.153132009128987e-10 -6.652784857036429e-16
8 3.6775468040116988e-09 -3.938762647345809e-09 -2.287228957722708e-09
21 -9.15307920889535e-10 -4.022910454243854e-09 -7.736233023289532e-16
23 -3.93876534240607e-09 3.6775446310403643e-09 -2.2872316103901713e-09
25 5.876102694417147e-09 5.8761039128096685e-09 -3.829632039809683e-16
101 2.0537974814806843e-09 2.0537937102887117e-09 -4.781317218589513e-09
102 -2.0537985003703507e-09 -2.053794118671983e-09 -4.781315311421907e-09
105 3.04163816500033e-09 3.842295578733209e-09 1.5840572932173535e-09
121 3.8423003451908765e-09 3.041635856393741e-09 1.584058319997837e-09
125 -4.446868679793784e-09 -4.446872003007574e-09 1.5385137091771256e-09
6 -5.759847955433271e-09 -1.194740377555195e-10 -5.633738830749233e-16
7 -2.59260844291854e-10 3.093805931593675e-09 -3.061657956165067e-09
9 6.372468072106852e-09 1.9456063371163943e-09 -1.7588257813070778e-15
12 4.0241679035688704e-10 -1.0750643159641662e-10 -2.1913695829854437e-10
27 4.957848512659906e-10 -3.1419179536456753e-09 -3.4651727284908196e-09
29 -2.3666695858317923e-09 -2.6767546085151834e-09 7.940129157211219e-16
106 8.631151216132261e-10 -2.606230666795421e-09 1.7362915663634483e-09
109 1.8169720108220265e-09 -6.934737036713024e-10 1.0055843384071715e-10
129 2.711497795803469e-09 -1.640924270321806e-09 1.3285964455718344e-09
10 2.474571597499637e-09 -1.4034166240723848e-09 -1.1394543368145316e-15
14 -6.372466445716596e-09 -1.9456023948784814e-09 -1.0456037074638591e-15
16 -6.20937482637709e-10 5.962157418694052e-10 1.014133290486712e-09
31 -8.476205685918153e-10 6.951633418798387e-10 8.411293111781728e-10
33 -1.0800880259303796e-09 -1.2061091153558287e-09 -8.661153167021245e-16
35 -4.811197801043534e-09 7.676004020179715e-10 -1.2075722054564693e-10
110 -4.527678401807278e-10 -1.3138278069646808e-09 3.5531316529885587e-09
114 -1.816971970633803e-09 6.93475581584246e-10 1.005591123124903e-10
133 -2.5970226829150434e-09 -3.1853557708911554e-09 1.0206209217996888e-11
18 4.0229048278925635e-09 9.153128678825465e-10 -6.311915102271368e-16
19 -3.6775472276133046e-09 3.938761361407931e-09 -2.2872329592074225e-09
20 2.5925996251495024e-10 -3.093807452245132e-09 -3.0616599691222613e-09
37 -6.268808253367492e-10 4.545831098048094e-09 -1.8143800902596535e-16
39 -8.762400348409274e-10 8.762355658356756e-10 -8.03637520041525e-09
117 -8.631170494659474e-10 2.6062329315200155e-09 1.736293429353559e-09
118 -3.0416395826694637e-09 -3.842295833360973e-09 1.5840572443718552e-09
137 -8.87374973218839e-10 -6.225236408987652e-10 -1.8339018909736807e-09
22 -1.1947597624629997e-10 -5.7598481345072665e-09 -9.779626887156878e-16
24 3.093814572061727e-09 -2.5925772261249354e-10 -3.061659663573562e-09
28 -3.1419156109271155e-09 4.957860581632389e-10 -3.4651734451289817e-09
41 1.9456105415137763e-09 6.372464244769567e-09 -1.1512744025491222e-15
43 -1.0750962065015181e-10 4.024146526979989e-10 -2.1913803776604757e-10
45 -2.676749337356869e-09 -2.3666710863891376e-09 -2.9106911871429296e-17
122 -2.6062328227754107e-09 8.631181763406869e-10 1.736290996488529e-09
141 -6.934740582732745e-10 1.8169696401600926e-09 1.0056041015570797e-10
145 -1.6409222972203957e-09 2.711493926195543e-09 1.328595940007769e-09
26 -1.766998390767675e-09 -1.7669950015485142e-09 -2.8368157763017385e-17
32 -9.178017295665039e-10 -3.1303305891111835e-10 3.890690032741238e-10
47 -3.1303690314177624e-10 -9.178037862787192e-10 3.8906839485084017e-10
49 -4.473745643153662e-09 -4.473746216463788e-09 -7.564842070137969e-17
126 2.6836286079801366e-09 2.683630100678687e-09 1.7814032992831521e-09
149 -8.930159783077474e-10 -8.930196582938772e-10 1.49687819939461e-10
51 -2.9411476803192643e-09 -1.6673000242115253e-09 -2.240328503882278e-09
130 -2.9169706478076037e-10 -1.3732985255144877e-09 -2.2812136290965063e-09
52 -1.6672996670977893e-09 -2.941142819430714e-09 -2.2403310522884504e-09
146 -1.3733005142034182e-09 -2.91693779947555e-10 -2.281214217324848e-09
50 -4.0766677132756175e-09 -4.076661261449722e-09 -6.571956548432361e-16
150 -2.1561580359585466e-09 -2.1561622671214356e-09 3.6152644375882587e-09
30 -2.491269513314552e-09 -1.4536372038628963e-09 -2.7420936479637985e-16
34 -1.790902547636173e-09 -1.2036474212722525e-09 -1.0706763293213827e-15
36 -1.1293143655011784e-09 1.4379902803502683e-09 -4.405333791804521e-09
53 4.605098149163783e-10 -2.7169543073319957e-09 2.647694724548289e-16
55 -1.991705374271092e-09 1.9917024150431827e-09 -3.973382915491781e-09
134 -6.9898608696065665e-09 3.4013453879078017e-09 -3.35492580888509e-09
153 1.360801739723229e-09 -2.085183037939618e-09 -3.0405612432807135e-09
54 2.7169516765247283e-09 -4.60507023714051e-10 4.207943401514245e-16
56 1.3434704801679255e-09 -1.34347279927449e-09 1.5679682342405072e-09
154 2.085182601268928e-09 -1.3607991747908263e-09 -3.0405593114756577e-09
38 -4.545839876072161e-09 6.268859661788389e-10 -9.314211798857375e-16
40 -9.793881124038554e-10 9.793937555987387e-10 -2.1390083081751967e-09
57 1.2036491906495202e-09 1.790897647332421e-09 -9.580163277885663e-16
59 -7.676047612582144e-10 4.811196146973085e-09 -1.2075735824941273e-10
138 6.225194731435872e-10 8.873799341004278e-10 -1.8338993987128206e-09
157 -3.401344417743586e-09 6.989854883828317e-09 -3.3549268417359557e-09
60 -1.4379892685508379e-09 1.1293171167953586e-09 -4.405332962763118e-09
158 3.1853556305070973e-09 2.5970258830227474e-09 1.0203984637090836e-11
42 -1.4034204821418404e-09 2.4745750796910025e-09 -1.335667428008735e-16
48 6.951662354319305e-10 -8.47619963995453e-10 8.41131696467438e-10
62 -1.945608320523425e-09 -6.372466121796006e-09 -5.066375675488886e-16
63 5.962134416846133e-10 -6.209389217307121e-10 1.0141316511913454e-09
65 -1.2061097394552995e-09 -1.0800872972767135e-09 -1.1462508746119211e-15
68 7.676021892119105e-10 -4.811196124367209e-09 -1.207574445358926e-10
142 -1.313831709359383e-09 -4.5276174339082193e-10 3.553131856293689e-09
162 6.934772307050423e-10 -1.8169703583768369e-09 1.005578924817065e-10
165 -3.1853541302660316e-09 -2.5970285886981987e-09 1.0208368744006598e-11
46 -1.453636700697473e-09 -2.49127402709292e-09 -1.4373153761130365e-15
66 -1.2036490160265178e-09 -1.7908967424255879e-09 -2.462433663011292e-15
67 1.4379909642518842e-09 -1.129316558714389e-09 -4.405331020853291e-09
69 -2.716947875186971e-09 4.6050563606834563e-10 4.491624979144419e-16
72 1.9917023720476935e-09 -1.9917022297636524e-09 -3.973380040851794e-09
166 3.401345534527406e-09 -6.989855842888136e-09 -3.3549265988164347e-09
169 -2.0851828339834603e-09 1.3608017866918297e-09 -3.0405620664005414e-09
70 -4.605072839586545e-10 2.716952053372433e-09 -8.699568380658664e-16
71 -1.3434747065827769e-09 1.3434692990390555e-09 1.5679662248293323e-09
170 -1.3608034347369566e-09 2.0851829080204736e-09 -3.0405612968219176e-09
73 4.076662810598618e-09 4.07666323654346e-09 -1.4089518355631968e-15
74 4.473744722481354e-09 4.473753287550315e-09 -1.4846002562645764e-15
75 1.667300729584914e-09 2.9411433637447406e-09 -2.2403283005771476e-09
76 2.941148319606589e-09 1.6673026616167901e-09 -2.240330915175688e-09
173 2.1561631571621015e-09 2.1561583003438433e-09 3.615267142499489e-09
174 8.930186061257056e-10 8.930194850764258e-10 1.4968825827921121e-10
44 -5.962126828363931e-10 6.209402178009199e-10 1.0141313369253476e-09
61 1.4034148699746297e-09 -2.474576325525931e-09 -5.815472341418564e-16
64 1.0750936947375496e-10 -4.024165344524639e-10 -2.191376677979901e-10
161 1.3138318305150567e-09 4.527618072191769e-10 3.553130787759747e-09
58 1.2061089404188556e-09 1.0800942692891004e-09 -1.3463054871698666e-15
77 1.4536401720291531e-09 2.491272157737981e-09 -1.7516344717830055e-15
78 2.6767506375641e-09 2.366668924794616e-09 -1.2227858002433952e-15
79 -6.951644115957876e-10 8.476158497999479e-10 8.411287319949518e-10
80 3.130368507931118e-10 9.178064381012324e-10 3.8907048936648837e-10
177 1.3732974021742248e-09 2.916919936262692e-10 -2.2812134367174155e-09
178 1.640921935256277e-09 -2.711491535120964e-09 1.3285969487579492e-09
82 9.153105555821873e-10 4.022908463744784e-09 -5.598278633545462e-16
83 -3.0938105366912854e-09 2.592575677696324e-10 -3.0616596387514242e-09
84 3.938762968936871e-09 -3.677542690776574e-09 -2.287230092102728e-09
85 4.54583554047205e-09 -6.268837307089068e-10 -1.3671383530270826e-15
88 8.762394541801982e-10 -8.762337137652742e-10 -8.036375656189599e-09
181 2.6062284056168458e-09 -8.631167646023632e-10 1.736290995011021e-09
182 -3.842298476327671e-09 -3.0416329091711633e-09 1.5840590253971974e-09
185 -6.225227591218614e-10 -8.873827011778162e-10 -1.8338988833579544e-09
86 6.268821473372263e-10 -4.545834426158439e-09 -1.7494249804105042e-16
87 9.793925986174607e-10 -9.793921529501931e-10 -2.139009576777603e-09
89 1.7908991964997863e-09 1.20364665701843e-09 -6.294185003669482e-16
92 4.811195267560195e-09 -7.675993831283052e-10 -1.2075858753624914e-10
186 8.873769874557006e-10 6.22525602443291e-10 -1.833902532761695e-09
189 6.989856799927923e-09 -3.401347447582378e-09 -3.354923673749554e-09
91 1.1293162798202404e-09 -1.4379905834795479e-09 -4.405333563222457e-09
190 2.5970294419931554e-09 3.185355115297245e-09 1.0206834961195566e-11
11 6.209396202965971e-10 -5.962143080954317e-10 1.0141306359954495e-09
13 -2.474575869432419e-09 1.403413780164569e-09 -1.7730098601885864e-16
15 -4.0241604037371615e-10 1.0750689021496712e-10 -2.1913742075861625e-10
113 4.5276469563849567e-10 1.3138289662176277e-09 3.5531309729654016e-09
90 1.0800873043153664e-09 1.2061108626570458e-09 -3.0850371567281405e-16
93 2.491274879027541e-09 1.4536316846632728e-09 -5.355459392536822e-16
94 2.366673118276906e-09 2.6767537118636727e-09 -1.6701845227240035e-16
95 9.178010200327176e-10 3.130314893679913e-10 3.8906970924214987e-10
96 8.476169834755102e-10 -6.951646935043554e-10 8.41133366051723e-10
193 2.9169716242069014e-10 1.3733035851536492e-09 -2.2812155754134633e-09
194 -2.7114990889986498e-09 1.6409245364808251e-09 1.3285982772941774e-09
17 5.759850766835905e-09 1.1946782882273993e-10 -1.1908716227600006e-16
81 1.1947671381840182e-10 5.759847648702565e-09 -2.878924760481217e-15
97 1.7669932800667531e-09 1.7669922710763918e-09 -6.134614116252509e-16
98 -5.876101037687183e-09 -5.876098233967591e-09 -9.857934822648541e-16
99 3.1419135152109923e-09 -4.957881898435573e-10 -3.4651677692765496e-09
100 -4.957856012491615e-10 3.141918965407519e-09 -3.465174672194939e-09
197 -2.6836267028553493e-09 -2.683632015600903e-09 1.7813999352530388e-09
198 4.4468727971844005e-09 4.446869197974384e-09 1.5385138735222113e-09
108 -3.0293099202138678e-09 -1.2710877033773756e-09 -4.070864957371848e-09
123 -1.2710918563574715e-09 -3.0293156600377882e-09 -4.070866801302103e-09
202 -6.602993724318511e-10 -6.60294965320342e-10 2.9698364888019894e-09
225 -1.9374702076291724e-09 -1.9374729770705737e-09 2.985672513770918e-09
107 -1.8506934266011508e-09 -1.7989834759412151e-09 -2.582993893197153e-09
112 -1.1587668128816977e-09 -1.999130847644711e-09 2.2747199564509712e-09
127 2.346119257203624e-09 -1.6347463425881474e-09 5.918538370999439e-09
206 2.3647778883644874e-10 -2.4248827710140686e-09 1.486889475281427e-09
209 -1.7021513745573345e-09 -1.3794826623171337e-10 -1.935559593291728e-09
229 -2.7279739733699596e-09 -3.31691421951336e-09 -2.2552394311063705e-09
111 -5.760739574314804e-10 7.757439497784487e-10 3.502687749456333e-09
131 -1.7008862382003181e-09 -5.106093986067681e-09 3.5252526119096518e-09
210 -2.701179756057052e-09 1.6969024947028904e-09 -3.4066067649746135e-09
115 1.1587699217898464e-09 1.9991293059572308e-09 2.274717323852225e-09
116 5.760748325891763e-10 -7.757438906781201e-10 3.50268728138173e-09
135 -2.781065649980841e-09 -2.5550163631837806e-09 4.47771898852772e-09
213 2.7011772773892673e-09 -1.6968991378042219e-09 -3.406604874761414e-09
214 1.7021540130915082e-09 1.379504742199926e-10 -1.935558559811668e-09
233 2.4631673675506847e-09 1.0358486143790163e-09 -2.6460562873184956e-09
104 1.8262027847768635e-09 -1.8261960662515e-09 -5.691419654631935e-09
221 -2.076235904099837e-09 -5.364309007786932e-10 1.0693356312733973e-09
119 3.0293088623179843e-09 1.2710904184464748e-09 -4.070863359298961e-09
120 1.8506926654997305e-09 1.7989817584833552e-09 -2.582993554356038e-09
139 -7.662723443482827e-10 7.66268375170209e-10 -1.7197651483463066e-09
217 -2.3647765576836496e-10 2.4248854151443044e-09 1.4868876588374423e-09
218 5.364270042940238e-10 2.0762368423175544e-09 1.0693326100645955e-09
237 4.355952728034243e-11 -2.1977628217865825e-09 -1.0045442175387771e-09
124 -1.7989831402490395e-09 -1.8506861691916028e-09 -2.5829933584384485e-09
128 -1.6347435857263432e-09 2.3461232014302775e-09 5.918538246180006e-09
143 -1.9991338357573282e-09 -1.1587713761658252e-09 2.2747202286079847e-09
222 -2.424884702985344e-09 2.3648118760400644e-10 1.4868894259372697e-09
241 -1.379469471123774e-10 -1.7021572751341493e-09 -1.9355604561565267e-09
245 -3.3169111563433253e-09 -2.7279762126814133e-09 -2.2552383960287548e-09
144 7.757439604165079e-10 -5.760727576948085e-10 3.5026857755053556e-09
148 -5.106090474030649e-09 -1.7008801730290882e-09 3.5252540374095795e-09
242 1.6969031897227557e-09 -2.701179277935393e-09 -3.4066046614092274e-09
244 -3.799148420946513e-09 -2.427697127464999e-09 3.659492351429243e-15
132 -1.5082194792194796e-09 1.634843621492547e-10 6.073794097444893e-09
147 1.6348173445852508e-10 -1.5082223355383645e-09 6.0737962699729756e-09
226 -6.83512981907934e-10 -6.835102373648545e-10 -2.0306383481369397e-09
249 6.000879761964503e-10 6.000849038658642e-10 -2.7176035259638396e-09
151 -3.1597216873903455e-09 4.135216941841683e-09 2.3186035654071196e-09
230 -1.5894244447456572e-09 3.432199521709662e-09 2.4363218160847548e-09
152 4.1352182297855955e-09 -3.1597202963415803e-09 2.318601536492836e-09
246 3.432192864660612e-09 -1.5894241730188865e-09 2.4363214116815213e-09
250 1.5964943238091702e-09 1.596495813473306e-09 -6.9548457096839164e-09
136 2.854223491904956e-09 6.571749113066022e-10 1.5299959310919323e-09
155 2.0318133632496435e-09 -2.0318132124346075e-09 -4.2951709140015393e-10
234 2.286440867955608e-09 2.9706207790441477e-09 -7.085608842133501e-09
253 -5.457536433290401e-10 8.227863415769451e-10 2.394138628132085e-09
156 -4.819513259543992e-09 4.819514718946369e-09 -4.007158250486155e-10
254 -8.227874234084615e-10 5.457527347469395e-10 2.3941390119887197e-09
140 -3.6135459901857566e-09 3.6135516610054266e-09 5.0060092774124776e-09
159 2.5550149697070423e-09 2.781058057610946e-09 4.477717118651036e-09
238 2.1977630187170734e-09 -4.3560643685551064e-11 -1.0045462189714077e-09
257 -2.9706207495724763e-09 -2.2864421878548736e-09 -7.085608118757021e-09
160 -6.571756115577699e-10 -2.854221130713134e-09 1.5299951259307554e-09
258 -1.0358507916351246e-09 -2.4631637923132393e-09 -2.646056734412482e-09
163 -7.757446968066032e-10 5.760733185569275e-10 3.5026866383701543e-09
164 1.9991288169574176e-09 1.1587683336809053e-09 2.2747240843134274e-09
168 -2.555013208221746e-09 -2.781059334473547e-09 4.477717960239716e-09
261 -1.6969020715445372e-09 2.701178448757782e-09 -3.40660784632594e-09
262 1.3794791162974133e-10 1.702153656125523e-09 -1.9355601340597353e-09
265 1.0358507354898123e-09 2.4631651965601347e-09 -2.6460582742715456e-09
167 6.571725864520402e-10 2.854221354246068e-09 1.5299948046419766e-09
172 -2.031810336464855e-09 2.0318146058063505e-09 -4.2951656830453e-10
266 2.9706173290117873e-09 2.286441256158789e-09 -7.085610583056038e-09
269 8.227916526279813e-10 -5.45752043273094e-10 2.394137968424666e-09
171 4.819509413700834e-09 -4.819512164710965e-09 -4.007121867631242e-10
270 5.457499328771723e-10 -8.227901310161442e-10 2.3941358519287748e-09
175 -4.1352191824136355e-09 3.1597219384742243e-09 2.3186035644438008e-09
176 3.1597229834144663e-09 -4.135221603703312e-09 2.318604605849937e-09
273 -1.5964909112375334e-09 -1.5964944912927576e-09 -6.9548481262132465e-09
274 -6.00087712373746e-10 -6.000890604012142e-10 -2.717606970921998e-09
276 -5.397238595417256e-09 5.621868444695439e-09 6.2581245687526255e-15
179 5.1060933894498625e-09 1.7008861027128146e-09 3.52525715554292e-09
180 -1.6348185787243995e-10 1.5082197906782117e-09 6.0737946679108155e-09
277 -3.4321943026565985e-09 1.589427979056967e-09 2.4363208176724288e-09
278 3.3169135114914228e-09 2.7279734060068043e-09 -2.255241259379655e-09
103 -1.8261976383202427e-09 1.8261946537536446e-09 -5.691421993822944e-09
205 -5.364281047421436e-10 -2.0762441794040415e-09 1.0693341483546724e-09
183 1.798982360124701e-09 1.8506908983999033e-09 -2.5829934269948294e-09
184 1.2710923864874196e-09 3.029310656603963e-09 -4.070866590904933e-09
188 7.662691360869407e-10 -7.662649352355786e-10 -1.7197607543846204e-09
281 2.424886673390302e-09 -2.3648094883867863e-10 1.4868895074957232e-09
282 2.0762394625306263e-09 5.36429719363123e-10 1.0693315486226925e-09
285 -2.197758528865104e-09 4.356045101847959e-11 -1.0045474743824363e-09
187 3.613549052899842e-09 -3.6135518950104076e-09 5.0060095729141214e-09
192 2.7810648458746975e-09 2.5550096814096325e-09 4.477720414085363e-09
286 -4.3566229936344277e-11 2.1977630560495505e-09 -1.0045487314999758e-09
289 -2.2864363361778276e-09 -2.9706193193445223e-09 -7.085612415941918e-09
191 -2.854228994602867e-09 -6.57172579710909e-10 1.52999775205386e-09
290 -2.4631709987118157e-09 -1.0358505540518033e-09 -2.6460580511678046e-09
195 1.5082163452029255e-09 -1.634814082828498e-10 6.0737966505744745e-09
196 1.7008871001486e-09 5.106088972882301e-09 3.5252522451551745e-09
293 1.589429839848779e-09 -3.432192536997342e-09 2.436319569325736e-09
294 2.7279746545012475e-09 3.31690847614342e-09 -2.255240806080134e-09
295 -3.787876722505761e-09 -8.486024719897573e-10 3.0446319242111864e-15
201 6.60295277665579e-10 6.602961523504434e-10 2.969838351644349e-09
199 1.6347457712564974e-09 -2.3461204562200106e-09 5.918535841978636e-09
200 -2.3461193918230913e-09 1.6347462818833372e-09 5.918539755011397e-09
297 6.835115607851245e-10 6.835151653141703e-10 -2.0306393338769464e-09
298 1.9374684233902497e-09 1.937473366246238e-09 2.9856708325143183e-09
208 -2.351850157436433e-10 -3.2278312988550836e-09 1.1355181625806493e-15
223 -3.227832342566888e-09 -2.351879778521164e-10 3.472144309535982e-17
302 -6.602921480076741e-10 -6.602902012428476e-10 -2.969836364691299e-09
308 -3.029312610460829e-09 -1.2710880304976948e-09 4.070867780594549e-09
323 -1.2710936412612727e-09 -3.0293163692417324e-09 4.070861858150613e-09
325 -1.9374714038198245e-09 -1.9374737826080535e-09 -2.985671516452872e-09
207 -6.987589002714013e-10 -1.2875091096403935e-13 -5.853241145211123e-17
212 -3.810817040906873e-09 1.4102844439581934e-09 1.4019105854673958e-15
227 3.336633566695872e-11 -6.6887424864986135e-09 1.306255780067586e-16
306 2.3647731789917347e-10 -2.4248842318957007e-09 -1.4868924662349022e-09
307 -1.850690618689129e-09 -1.7989840372627468e-09 2.5829961074371386e-09
309 -1.7021511712522038e-09 -1.3794566581725175e-10 1.93556036868804e-09
312 -1.158766615338849e-09 -1.9991311927906303e-09 -2.2747205121418115e-09
327 2.346119384749521e-09 -1.6347457099976215e-09 -5.918535540938646e-09
329 -2.7279715904447075e-09 -3.3169142443354986e-09 2.2552367634269946e-09
211 -2.427701806262566e-09 -3.799148262557632e-09 8.52134395200429e-16
231 -1.1084314394272933e-09 5.903251371547333e-09 1.4732026655357339e-15
310 -2.7011817551995445e-09 1.6969028067526257e-09 3.4066039108350534e-09
311 -5.760785705445728e-10 7.757422547810224e-10 -3.50268563248256e-09
331 -1.700886935783262e-09 -5.106094249729022e-09 -3.5252520637702637e-09
215 3.8108186058835755e-09 -1.4102814558455756e-09 -6.59116415525107e-16
216 2.4276993488247277e-09 3.799148413854474e-09 -1.3668751718759609e-15
235 1.5098112437377137e-09 -4.44761382724647e-10 1.7863997784035523e-17
313 2.701177389679892e-09 -1.6969080288576673e-09 3.40660406848518e-09
314 1.7021590641010982e-09 1.3795133944880437e-10 1.9355596116128297e-09
315 1.1587686842751362e-09 1.999128410499524e-09 -2.274720348933454e-09
316 5.76074408361188e-10 -7.757425691947709e-10 -3.5026828364460106e-09
333 2.4631655093538565e-09 1.0358508952269195e-09 2.6460548475282932e-09
335 -2.781061540919562e-09 -2.5550141379622605e-09 -4.477715311626166e-09
204 -6.587324383257057e-10 6.587361380062806e-10 -1.7091815052217973e-15
304 1.8261957754778828e-09 -1.8261954634281475e-09 5.691423072403942e-09
321 -2.0762342977529036e-09 -5.36427394356193e-10 -1.0693344894550472e-09
220 6.987555542878246e-10 1.3601652529977825e-13 1.0972183792726693e-15
239 1.9983763920564787e-09 -1.9983751128298645e-09 2.8176081694830285e-16
317 -2.364790664932104e-10 2.4248873654551508e-09 -1.4868881704985378e-09
318 5.364234405442048e-10 2.076236727515166e-09 -1.0693337211507746e-09
319 3.0293166529233103e-09 1.271091773026008e-09 4.0708645365775085e-09
320 1.8506905999432436e-09 1.7989846549904635e-09 2.582990065507733e-09
337 4.355910707700556e-11 -2.19776635906765e-09 1.0045441628709731e-09
339 -7.662702935668777e-10 7.662669939955279e-10 1.719768110478443e-09
224 -1.360584126577252e-13 -6.987537607221314e-10 2.9501221876794154e-16
228 -6.688741006543273e-09 3.336727755997809e-11 -1.5350964081811194e-15
243 1.4102828080610956e-09 -3.810817979013777e-09 -1.2828880641758817e-15
322 -2.4248863554305337e-09 2.3647736263073474e-10 -1.4868884921520765e-09
324 -1.7989817171131251e-09 -1.8506891171159971e-09 2.582995188184624e-09
328 -1.634742485573725e-09 2.3461242835572954e-09 -5.918536861163804e-09
341 -1.3795177679123656e-10 -1.7021554122917894e-09 1.9355591376281938e-09
343 -1.9991319965551e-09 -1.1587687228565694e-09 -2.2747167462688686e-09
345 -3.316910442411355e-09 -2.7279738078890395e-09 2.2552421416177392e-09
248 5.9032520674352345e-09 -1.1084298683740073e-09 -5.599363678642192e-16
342 1.6969013647046061e-09 -2.701180964658773e-09 3.406602891354384e-09
344 7.757468877296624e-10 -5.760739716155594e-10 -3.502685558016146e-09
348 -5.106090028635798e-09 -1.7008859335819873e-09 -3.525252201693347e-09
232 3.787873787119408e-09 8.486047623814539e-10 1.902615034083101e-16
247 8.486056014922674e-10 3.787872583688966e-09 -1.5492597096033288e-16
326 -6.835130240861764e-10 -6.835104973254995e-10 2.0306377681364036e-09
332 -1.5082200486465292e-09 1.634852621731333e-10 -6.073790385431742e-09
347 1.6348046677855153e-10 -1.5082231038818835e-09 -6.073796324049776e-09
349 6.000883900099959e-10 6.000883352309469e-10 2.717604362676743e-09
251 5.397239516361064e-09 -5.6218710745803395e-09 1.9533582069046443e-16
330 -1.5894242136272765e-09 3.4321964380622865e-09 -2.4363256096748284e-09
351 -3.1597275557919363e-09 4.13522019528218e-09 -2.318602272213436e-09
252 -5.621867936519842e-09 5.397239362594013e-09 1.4045839518972114e-15
346 3.4321957507254644e-09 -1.5894249859208214e-09 -2.4363236475439163e-09
352 4.135222113735737e-09 -3.1597218914040447e-09 -2.318603004309523e-09
350 1.596489085385694e-09 1.596495091752097e-09 6.954845535550339e-09
236 -4.151734003933414e-09 8.558574750969952e-09 1.349209714258561e-15
255 -3.622675580794948e-09 3.6226775059004276e-09 4.027364194139309e-16
334 2.286439776060316e-09 2.9706211586945014e-09 7.085609132032156e-09
336 2.854228367559709e-09 6.571726814812133e-10 -1.5299954268668588e-09
353 -5.457517813579431e-10 8.227858581362566e-10 -2.394141710214225e-09
355 2.0318130986833282e-09 -2.0318148360796146e-09 4.29519394219066e-10
256 4.741093194050693e-09 -4.741091976091212e-09 5.950017933413083e-16
354 -8.227910141089538e-10 5.457527745794397e-10 -2.3941424413499318e-09
356 -4.8195084909567114e-09 4.819510512508179e-09 4.00719448457446e-10
240 2.3317570149330192e-11 -2.3315697259914544e-11 -1.985771043411217e-16
259 4.447593768594918e-10 -1.5098102957684418e-09 1.1370903236676134e-15
338 2.1977651463289055e-09 -4.3557881336188885e-11 1.0045425194385836e-09
340 -3.6135518187663664e-09 3.6135514298585006e-09 -5.006005341335344e-09
357 -2.970620458207856e-09 -2.286440918469669e-09 7.085607241708143e-09
359 2.555014706119576e-09 2.7810592650306605e-09 -4.4777159434410004e-09
260 -8.558572996041099e-09 4.15173191376658e-09 8.974384908987896e-16
358 -1.0358500162388124e-09 -2.463166026679621e-09 2.646052101833219e-09
360 -6.57174692547659e-10 -2.8542247530181194e-09 -1.5299902282865183e-09
263 3.799147350048558e-09 2.4276989495281322e-09 4.565361873590283e-16
264 -1.4102807312755462e-09 3.810819648413374e-09 -4.2965938945236746e-16
268 -4.4475888318705886e-10 1.5098092932629565e-09 1.206676343466838e-15
361 -1.696901473449211e-09 2.7011802957908034e-09 3.406603311114468e-09
362 1.3794982648039033e-10 1.7021530609852132e-09 1.9355599656237984e-09
363 -7.757457606125192e-10 5.760742895753276e-10 -3.5026844880046953e-09
364 1.999129941784423e-09 1.1587687686593243e-09 -2.274721070196665e-09
365 1.0358512151074483e-09 2.4631707438580133e-09 2.6460550924622178e-09
368 -2.5550128941773747e-09 -2.7810609582412255e-09 -4.477722204437475e-09
267 8.558571353642965e-09 -4.151733557866755e-09 1.5756470829131669e-15
272 3.622678737368121e-09 -3.6226758263937514e-09 9.96881719710799e-16
366 2.9706169435113096e-09 2.286439715482479e-09 7.085608206521009e-09
367 6.571718867110745e-10 2.854222618415124e-09 -1.5299932550682965e-09
369 8.227892484579124e-10 -5.457535976117381e-10 -2.3941396789359285e-09
372 -2.0318098400578873e-09 2.03180991149033e-09 4.295218383593304e-10
271 -4.74109374385361e-09 4.74109204028846e-09 3.3085102745227436e-16
370 5.457531998665261e-10 -8.227850351641798e-10 -2.3941413254710853e-09
371 4.819506450080868e-09 -4.81951303007749e-09 4.007155272152795e-10
275 5.621866839789076e-09 -5.3972390623112454e-09 7.094024842420703e-16
373 -1.5964896063920514e-09 -1.5964929617762515e-09 6.954842947842448e-09
374 -6.000936477594914e-10 -6.000863072031686e-10 2.717601863619345e-09
375 -4.1352195124104785e-09 3.1597219597711203e-09 -2.3185985592015052e-09
376 3.1597237682855263e-09 -4.135215771255787e-09 -2.3186047157349937e-09
279 -5.9032539650359745e-09 1.1084257139279463e-09 2.0803315692879415e-16
280 -8.486024389942629e-10 -3.7878762004836384e-09 -4.798946688243774e-16
377 -3.432192863231156e-09 1.589425600268738e-09 -2.436323146668631e-09
378 3.3169096806081185e-09 2.7279754127584645e-09 2.255242872523126e-09
379 5.106092174347105e-09 1.7008887811397102e-09 -3.525249934664763e-09
380 -1.634744422586997e-10 1.508218449100751e-09 -6.073793916128857e-09
203 6.587350115540161e-10 -6.587323957734691e-10 -9.571298228584719e-16
303 -1.8261984137165549e-09 1.8261932167291529e-09 5.691426219496444e-09
305 -5.364272111451741e-10 -2.076235508718638e-09 -1.0693370065380455e-09
283 1.3191429761117774e-13 6.987560496778609e-10 6.155137628826828e-16
288 -1.99837415540454e-09 1.9983737340191964e-09 -1.3282868127443823e-15
381 2.424886944069807e-09 -2.3647929166546265e-10 -1.486887765218034e-09
382 2.076236144047171e-09 5.364276543976392e-10 -1.0693345060031393e-09
383 1.7989824972374636e-09 1.8506900248970455e-09 2.5829946963221385e-09
384 1.2710909985162008e-09 3.029315981839078e-09 4.070862983420871e-09
385 -2.197760415643097e-09 4.3560014267050696e-11 1.0045473767468464e-09
388 7.662707052006669e-10 -7.662700830219568e-10 1.719769059606058e-09
287 -2.3318973726729613e-11 2.3318033200405343e-11 1.0756259818477424e-15
292 -1.5098051697014343e-09 4.4475833669370716e-10 -1.9148506490036734e-16
386 -4.35625235100209e-11 2.197757468321249e-09 1.0045475622526203e-09
387 3.613547758950089e-09 -3.613546770615624e-09 -5.006008397177723e-09
389 -2.286440312890544e-09 -2.970619640259307e-09 7.0856066631159256e-09
392 2.78106329859046e-09 2.5550151441153443e-09 -4.4777154438493e-09
291 4.151730998464092e-09 -8.558573430096075e-09 2.286887217999912e-15
390 -2.463164183319845e-09 -1.0358492296134378e-09 2.646055071920236e-09
391 -2.854222092993458e-09 -6.571744497718647e-10 -1.5299948893955416e-09
296 1.108430959615404e-09 -5.903252396513252e-09 1.0070696005871171e-15
393 1.5894262855562302e-09 -3.432199646766881e-09 -2.4363214061639516e-09
394 2.7279750786938565e-09 3.316910390403066e-09 2.255241902391231e-09
395 1.5082184802623226e-09 -1.6347926723261863e-10 -6.073798745623688e-09
396 1.7008838909628287e-09 5.106093445696754e-09 -3.5252538151692574e-09
301 6.60292065267214e-10 6.60291477809947e-10 -2.969836916688369e-09
219 2.3518694064134814e-10 3.227828659434405e-09 -2.0271412734822838e-16
284 3.2278295624874273e-09 2.351871244433703e-10 4.609825636490325e-16
299 6.688740939686027e-09 -3.3368960441837055e-11 -1.534244532349857e-15
300 -3.33673730070089e-11 6.688743288924091e-09 -2.4520726366408152e-15
397 6.835100229945725e-10 6.835114526315231e-10 2.030642035943973e-09
398 1.9374742299975416e-09 1.9374743801123766e-09 -2.985671952908799e-09
399 1.6347440691670316e-09 -2.346126011650906e-09 -5.918537438869517e-09
400 -2.3461265134126966e-09 1.6347414362473894e-09 -5.91853737784183e-09
401 2.053794656484974e-09 2.0537977982584463e-09 4.781313570917227e-09
402 -2.0537959377800993e-09 -2.0537941293100422e-09 4.781313677297819e-09
403 -7.233198306337073e-10 7.233174450489404e-10 3.9437442890445925e-09
404 7.23320058760976e-10 -7.233158070833313e-10 3.943743722420192e-09
405 3.0416371840826245e-09 3.842291046382101e-09 -1.584059618432058e-09
408 3.6775477843384006e-09 -3.9387624481567795e-09 2.287228685514905e-09
421 3.8422978427721475e-09 3.041635648360584e-09 -1.5840600693675657e-09
423 -3.938765933409357e-09 3.67754466088603e-09 2.287233532776112e-09
425 -4.446867018058761e-09 -4.446874331133431e-09 -1.5385126174278353e-09
406 8.631124868282296e-10 -2.6062278731328992e-09 -1.7362912789257678e-09
407 -2.592608490198803e-10 3.093806995399591e-09 3.06166125100839e-09
409 1.8169749682024732e-09 -6.934760369522785e-10 -1.0056114890981637e-10
412 4.0241610242906125e-10 -1.0750812186581666e-10 2.191395621112749e-10
427 4.957842839028354e-10 -3.141917499755151e-09 3.4651738382408206e-09
429 2.7114969672168606e-09 -1.6409229169242794e-09 -1.3285995920733331e-09
410 -4.5276372916186536e-10 -1.3138265392626306e-09 -3.553131305478626e-09
414 -1.8169737932879392e-09 6.934765094594062e-10 -1.0055939835808109e-10
416 -6.209390389756064e-10 5.962175810716335e-10 -1.0141348439388512e-09
431 -8.476156088922331e-10 6.951629589097088e-10 -8.411300192001103e-10
433 -2.5970255782380526e-09 -3.1853588110120622e-09 -1.020590898832723e-11
435 -4.811197658020739e-09 7.675998346548162e-10 1.2076058364985006e-10
417 -8.631146889988202e-10 2.6062314037765196e-09 -1.7362902760555225e-09
418 -3.0416346104110616e-09 -3.84229632566671e-09 -1.584059662314052e-09
419 -3.6775444522618702e-09 3.938761356679905e-09 2.2872328264163713e-09
420 2.592590328667802e-10 -3.0938075166644903e-09 3.061660787686054e-09
437 -8.873761227202317e-10 -6.225237913091016e-10 1.8339004214440082e-09
439 -8.762400026312483e-10 8.762340475343804e-10 8.036376157951388e-09
422 -2.606234463400535e-09 8.63119577778008e-10 -1.7362912557912211e-09
424 3.0938146287980427e-09 -2.5925650219070644e-10 3.0616605418044464e-09
428 -3.1419150460941933e-09 4.957855301325355e-10 3.465174702735495e-09
441 -6.934719590296e-10 1.816968919874837e-09 -1.0056135457896016e-10
443 -1.0751248583408587e-10 4.024145244502857e-10 2.1913902296852657e-10
445 -1.6409229417464176e-09 2.711493265112249e-09 -1.3285999144386712e-09
426 2.683628609215196e-09 2.683629276947079e-09 -1.7814070163244487e-09
432 -9.178017037008757e-10 -3.13033129771489e-10 -3.890708249858134e-10
447 -3.1303650417863e-10 -9.178017127436877e-10 -3.8906549154719414e-10
449 -8.93014838477877e-10 -8.930212779614707e-10 -1.4969094304092314e-10
430 -2.9169820620202997e-10 -1.3732986477967616e-09 2.281214618422157e-09
451 -2.941148126344727e-09 -1.6673008267939886e-09 2.240328566380876e-09
446 -1.373301579680957e-09 -2.9169033778281063e-10 2.2812138497392725e-09
452 -1.6673006130229738e-09 -2.9411479258653307e-09 2.2403334626607265e-09
450 -2.1561581944716144e-09 -2.1561589162343784e-09 -3.6152663393998977e-09
434 -6.989856994651962e-09 3.4013475457369854e-09 3.354922818574724e-09
436 -1.1293152729481778e-09 1.4379900612357997e-09 4.405334911155512e-09
453 1.360802595258993e-09 -2.0851813387128245e-09 3.0405612930358027e-09
455 -1.9917064180561948e-09 1.9916987183176244e-09 3.9733850566966885e-09
454 2.0851804890394038e-09 -1.360797938601879e-09 3.040554875439617e-09
456 1.3434699169309961e-09 -1.3434683090900813e-09 -1.5679669488152844e-09
438 6.225197000888493e-10 8.873807047687137e-10 1.8338998011860587e-09
440 -9.793887122721914e-10 9.793955365871433e-10 2.139008463018058e-09
457 -3.401340249988408e-09 6.989853243794197e-09 3.3549220135105085e-09
459 -7.67605446822027e-10 4.81119447369503e-09 1.2075899237350055e-10
458 3.18534903227168e-09 2.597026904239489e-09 -1.0204203648343371e-11
460 -1.4379839317375557e-09 1.1293187470742738e-09 4.405333803169792e-09
442 -1.3138322746540266e-09 -4.52761856863453e-10 -3.553131156545798e-09
448 6.951668973556117e-10 -8.47615598254174e-10 -8.411308234078328e-10
462 6.93469347386076e-10 -1.8169717176843964e-09 -1.0055884754301785e-10
463 5.962149310128958e-10 -6.209398897940958e-10 -1.014133586283857e-09
465 -3.18535288206709e-09 -2.597030822646795e-09 -1.020593617447842e-11
468 7.676030308005909e-10 -4.811195417527279e-09 1.207614861118689e-10
466 3.401347606400241e-09 -6.9898560652323445e-09 3.3549248561947628e-09
467 1.4379868632431398e-09 -1.1293166902895258e-09 4.405332871496974e-09
469 -2.085181701397841e-09 1.360802519430794e-09 3.0405558670346275e-09
472 1.9917016603137285e-09 -1.9916996077683364e-09 3.9733834800499795e-09
470 -1.3608081325220753e-09 2.085183636879894e-09 3.040556457797819e-09
471 -1.3434688368744851e-09 1.3434681814518402e-09 -1.5679645493350144e-09
473 2.1561646876027253e-09 2.1561573542126916e-09 -3.6152652563863747e-09
474 8.930138102840346e-10 8.930146679757067e-10 -1.4968682093613183e-10
475 1.667299074912496e-09 2.941144588894554e-09 2.2403272766639534e-09
476 2.9411497557407884e-09 1.6673024508710205e-09 2.2403334997808118e-09
444 -5.962114133613332e-10 6.209398436958395e-10 -1.0141300520842024e-09
461 1.3138331283582745e-09 4.5276307433022363e-10 -3.553133811332562e-09
464 1.0751070750519611e-10 -4.0241181690724396e-10 2.1913904010762188e-10
477 1.3733010770326619e-09 2.916920757757261e-10 2.281211444060394e-09
478 1.640919469602108e-09 -2.711494225954311e-09 -1.3286022272092377e-09
479 -6.951667088255632e-10 8.476141124719111e-10 -8.411253969634048e-10
480 3.130358574732835e-10 9.178044623950914e-10 -3.8906646286109586e-10
481 2.606233503611197e-09 -8.63118982046695e-10 -1.7362902137046757e-09
482 -3.842293649012825e-09 -3.0416341011139795e-09 -1.5840607697064604e-09
483 -3.0938106998081924e-09 2.592567190889127e-10 3.0616611065080865e-09
484 3.938760594876669e-09 -3.677544239500687e-09 2.2872306854700274e-09
485 -6.225209302621906e-10 -8.873755547660732e-10 1.8339006627211e-09
488 8.762384199244464e-10 -8.762336192047483e-10 8.036375353415844e-09
486 8.873721056708917e-10 6.225271656423672e-10 1.8338963662749563e-09
487 9.793906026885484e-10 -9.793965383261713e-10 2.139010448706466e-09
489 6.9898581634820194e-09 -3.401351338096572e-09 3.3549240031230736e-09
492 4.811197468160933e-09 -7.675979333972428e-10 1.2076201003628259e-10
490 2.5970259099448517e-09 3.1853555403998734e-09 -1.020764092345899e-11
491 1.1293155784536286e-09 -1.4379903453052231e-09 4.405333927871485e-09
411 6.209389275332505e-10 -5.962149174198202e-10 -1.0141288606215764e-09
413 4.527681821026782e-10 1.3138287277478014e-09 -3.553129922530935e-09
415 -4.024173656576089e-10 1.0750696763639769e-10 2.1913820324696786e-10
493 2.9169629897411137e-10 1.373302263065445e-09 2.28121365145767e-09
494 -2.711495046197615e-09 1.640924273619297e-09 -1.3285987114922874e-09
495 9.178008642734029e-10 3.1303028372128634e-10 -3.8906622764178773e-10
496 8.476168977915843e-10 -6.951603097374761e-10 -8.411345360166046e-10
497 -2.6836268422351638e-09 -2.6836281988047158e-09 -1.7814032675906009e-09
498 4.446870160718739e-09 4.446870694394707e-09 -1.538511093821362e-09
499 3.141917816532913e-09 -4.957843252730654e-10 3.465173020784005e-09
500 -4.95786393784569e-10 3.1419185284409206e-09 3.465173798692081e-09
