LAMMPS data file via write_data, version 29 Aug 2024, timestep = 26, units = metal

500 atoms
3 atom types

0 17.553201327280156 xlo xhi
0 17.553201327280156 ylo yhi
0 17.553201327280156 zlo zhi

Masses

1 56.7942
2 58.71
3 58.71

Atoms # atomic

1 2 0.00222562878276556 0.0022256287827631775 0 0 0 0
2 3 1.7530945039452495 1.7530945039452497 7.298262241166612e-20 0 0 0
3 1 1.752870245451935 0.0024498872760783216 1.7503706776560357 0 0 0
4 1 0.0024498872760784452 1.7528702454519371 1.750370677656037 0 0 0
5 1 3.5085397789572155 0.002437204489523884 0 0 0 0
8 1 3.508005171266276 1.7551392295774186 1.7527107666374035 0 0 0
21 1 0.0024372044895233287 3.508539778957216 0 0 0 0
23 1 1.7551392295774182 3.5080051712662748 1.7527107666374038 0 0 0
25 1 3.508025165557189 3.5080251655571884 4.045952047575686e-16 0 0 0
101 1 0.00019224593182988112 0.0001922459318297538 3.510699883442902 0 0 0
102 1 1.755127886796184 1.7551278867961855 3.510699883442902 0 0 0
105 1 3.5102048114078803 0.00018765328670952984 3.5101633921932525 0 0 0
121 1 0.0001876532867107068 3.5102048114078803 3.510163392193253 0 0 0
125 1 3.5103777454311658 3.5103777454311667 3.510343511174484 0 0 0
6 1 5.266378081298557 1.755347200528217 0 0 0 0
7 1 5.265869096967372 0.00018603831307933185 1.7551515501502954 0 0 0
12 1 7.0214316810539765 1.7553356414033516 1.7553476634795708 0 0 0
27 1 5.265686977785696 3.510392160165892 1.755123105985438 0 0 0
29 1 7.0214066758033935 3.5106733837882915 5.231014819167913e-20 0 0 0
106 1 5.265651808407721 1.7552992068187467 3.5103263249790833 0 0 0
109 1 7.021218441994339 2.2758320775172485e-05 3.510577866384951 0 0 0
129 1 7.02118407393897 3.5106051078431766 3.510555324459087 0 0 0
10 1 8.776657550374884 1.7553381903193834 1.2967022650331728e-19 0 0 0
14 1 12.287069438050798 1.7553325282934857 0 0 0 0
16 1 10.531885969316019 1.7553321678853193 1.755348869877614 0 0 0
31 1 8.776636557699833 3.5106679497432904 1.7553376824647087 0 0 0
33 1 10.531912124107917 3.510669381488513 0 0 0 0
35 1 12.287277246303892 3.5105783702698554 1.7553100679808025 0 0 0
110 1 8.776610353437427 1.7553247632118698 3.510666542091517 0 0 0
114 1 12.28730301801383 1.75529737440724 3.5105778663849505 0 0 0
133 1 10.531949312490303 3.5106297095314165 3.5106399491119404 0 0 0
18 1 15.799981681050953 1.7528829282384921 0 0 0 0
19 1 15.800516288741894 0.00018090315059494946 1.7527107666374044 0 0 0
20 1 14.042652363040798 1.7551340944149347 1.7551515501502946 0 0 0
37 1 14.042680604906318 3.5104175484718683 1.29703918427379e-15 0 0 0
39 1 15.79828878290654 3.5102326771016297 1.7549367894349868 0 0 0
117 1 14.04286965160045 2.0925909267867597e-05 3.510326324979084 0 0 0
118 1 15.79831664860029 1.7551324794413032 3.5101633921932525 0 0 0
137 1 14.042720307327627 3.510533264279472 3.510477587343768 0 0 0
22 1 1.7553472005282156 5.266378081298558 3.320006344210969e-16 0 0 0
24 1 0.0001860383130793754 5.265869096967373 1.7551515501502943 0 0 0
28 1 3.5103921601658916 5.2656869777856965 1.7551231059854386 0 0 0
43 1 1.75533564140335 7.021431681053977 1.7553476634795713 0 0 0
45 1 3.510673383788293 7.0214066758033935 5.70548996614596e-19 0 0 0
122 1 1.7552992068187463 5.265651808407721 3.510326324979084 0 0 0
141 1 2.2758320773482457e-05 7.021218441994341 3.5105778663849505 0 0 0
145 1 3.5106051078431766 7.0211840739389695 3.5105553244590877 0 0 0
26 1 5.2656245730413085 5.2656245730413085 6.601392602698822e-20 0 0 0
32 1 7.021173618213637 5.265862171313759 1.7552895327899374 0 0 0
47 1 5.265862171313759 7.021173618213636 1.7552895327899372 0 0 0
49 1 7.0211319679166415 7.0211319679166415 0 0 0 0
126 1 5.2658424934757235 5.265842493475724 3.5105378163287404 0 0 0
149 1 7.021226068631037 7.021226068631037 3.5106019598641174 0 0 0
51 1 8.776562842388495 7.0212373703105655 1.7552988456134098 0 0 0
130 1 8.77657471976578 5.26593382061711 3.5106143155561482 0 0 0
52 1 7.021237370310565 8.776562842388495 1.7552988456134098 0 0 0
146 1 5.265933820617109 8.776574719765781 3.5106143155561473 0 0 0
50 1 8.776562940178332 8.776562940178334 0 0 0 0
150 1 8.77658562827394 8.77658562827394 3.510613282215143 0 0 0
30 1 8.776611573211271 5.265977873739383 0 0 0 0
34 1 12.287347804027677 5.2658571960948235 1.3967938254328297e-15 0 0 0
36 1 10.53196171660545 5.265945282374628 1.7553130493750193 0 0 0
53 1 10.531961360893387 7.021244311360496 2.3576404818784962e-20 0 0 0
55 1 12.287312207033564 7.021209252974607 1.7552964329581395 0 0 0
134 1 12.287312850316475 5.265902322284004 3.510598522139864 0 0 0
153 1 10.53193845305935 7.021251109173547 3.5106122717207167 0 0 0
54 1 12.287277148647677 8.776560099114784 8.015977638386886e-20 0 0 0
56 1 10.531937289713488 8.776584170294681 1.7552995910601004 0 0 0
154 1 12.287270350834625 8.77658300694882 3.5106122717207167 0 0 0
41 1 17.553188931714683 7.021452021957371 0 -1 0 0
38 1 15.798103911536302 5.265840855101851 0 0 0 0
40 1 14.042711342153678 5.265810117854492 1.7552743310066024 0 0 0
57 1 14.042664263913347 7.021173655980494 1.782520619921235e-15 0 0 0
59 1 15.797943089738316 7.021244213704279 1.7553100679808031 0 0 0
138 1 15.7979881957287 5.2658011526805435 3.5104775873437677 0 0 0
157 1 14.042619137724168 7.021208609691696 3.5105985221398646 0 0 0
60 1 14.042576177633542 8.776559743402721 1.7553130493750189 0 0 0
158 1 15.797891750476753 8.776572147517868 3.51063994911194 0 0 0
42 1 1.755338190319382 8.776657550374882 0 0 0 0
48 1 3.5106679497432904 8.776636557699833 1.7553376824647091 0 0 0
62 1 1.755332528293487 12.287069438050798 0 0 0 0
63 1 1.755332167885321 10.531885969316017 1.7553488698776145 0 0 0
65 1 3.510669381488513 10.531912124107917 1.05882791170405e-16 0 0 0
68 1 3.510578370269855 12.287277246303892 1.755310067980802 0 0 0
142 1 1.7553247632118703 8.776610353437427 3.5106665420915175 0 0 0
162 1 1.7552973744072387 12.28730301801383 3.5105778663849514 0 0 0
165 1 3.5106297095314156 10.531949312490301 3.51063994911194 0 0 0
46 1 5.265977873739384 8.776611573211271 4.559934671733719e-16 0 0 0
66 1 5.265857196094822 12.287347804027679 0 0 0 0
67 1 5.265945282374628 10.53196171660545 1.7553130493750189 0 0 0
69 1 7.021244311360496 10.531961360893385 0 0 0 0
72 1 7.021209252974608 12.287312207033564 1.755296432958141 0 0 0
166 1 5.2659023222840045 12.287312850316475 3.5105985221398646 0 0 0
169 1 7.021251109173547 10.53193845305935 3.5106122717207153 0 0 0
70 1 8.776560099114784 12.287277148647677 0 0 0 0
71 1 8.776584170294681 10.531937289713488 1.7552995910601006 0 0 0
170 1 8.776583006948819 12.287270350834623 3.510612271720716 0 0 0
73 1 10.531958519829837 10.531958519829839 0 0 0 0
74 1 12.28738949209153 12.287389492091528 0 0 0 0
75 1 12.287284089697605 10.531958617619676 1.7552988456134107 0 0 0
76 1 10.531958617619674 12.287284089697604 1.755298845613409 0 0 0
173 1 10.531935831734232 10.53193583173423 3.5106132822151426 0 0 0
174 1 12.287295391377134 12.287295391377132 3.510601959864116 0 0 0
44 1 17.553189292122852 8.77663549069215 1.7553488698776143 -1 0 0
61 1 17.553183269688788 10.531863909633287 2.7112865541602704e-19 -1 0 0
64 1 17.55318581860482 12.287089778954194 1.755347663479572 -1 0 0
161 1 17.5531966967963 10.531911106570746 3.510666542091518 -1 0 0
58 1 15.797852078519657 8.776609335900254 0 0 0 0
77 1 14.042543586268787 10.531909886796898 0 0 0 0
78 1 15.797848076219879 12.287114784204778 1.8128045017693874e-19 0 0 0
79 1 15.79785351026488 10.531884902308338 1.7553376824647084 0 0 0
80 1 14.042659288694411 12.287347841794533 1.7552895327899367 0 0 0
177 1 14.04258763939106 10.53194674024239 3.5106143155561464 0 0 0
178 1 15.797916352164995 12.287337386069199 3.5105553244590877 0 0 0
82 1 1.7528829282384892 15.799981681050955 0 0 0 0
83 1 1.7551340944149352 14.0426523630408 1.755151550150295 0 0 0
84 1 0.00018090315059536986 15.800516288741894 1.752710766637403 0 0 0
85 1 3.5104175484718687 14.042680604906318 0 0 0 0
88 1 3.510232677101629 15.79828878290654 1.7549367894349888 0 0 0
181 1 2.0925909266288395e-05 14.04286965160045 3.5103263249790837 0 0 0
182 1 1.755132479441304 15.79831664860029 3.5101633921932534 0 0 0
185 1 3.510533264279472 14.042720307327627 3.5104775873437672 0 0 0
9 1 7.021452021957372 17.553188931714683 9.63992196436121e-19 0 -1 0
86 1 5.265840855101853 15.798103911536302 4.0905062360591906e-19 0 0 0
87 1 5.265810117854492 14.04271134215368 1.7552743310066037 0 0 0
89 1 7.021173655980495 14.042664263913348 0 0 0 0
92 1 7.0212442137042785 15.797943089738316 1.7553100679808011 0 0 0
186 1 5.265801152680542 15.7979881957287 3.5104775873437672 0 0 0
189 1 7.021208609691696 14.042619137724166 3.5105985221398637 0 0 0
91 1 8.776559743402721 14.042576177633542 1.755313049375019 0 0 0
190 1 8.776572147517868 15.797891750476753 3.5106399491119404 0 0 0
11 1 8.776635490692152 17.55318929212285 1.7553488698776138 0 -1 0
13 1 10.531863909633287 17.553183269688788 0 0 -1 0
15 1 12.287089778954194 17.55318581860482 1.755347663479571 0 -1 0
113 1 10.531911106570744 17.5531966967963 3.510666542091517 0 -1 0
90 1 8.776609335900252 15.797852078519657 0 0 0 0
93 1 10.5319098867969 14.042543586268788 2.0074802178873113e-18 0 0 0
94 1 12.287114784204778 15.797848076219879 1.4893864196112288e-18 0 0 0
95 1 12.287347841794535 14.042659288694413 1.7552895327899378 0 0 0
96 1 10.531884902308338 15.79785351026488 1.7553376824647102 0 0 0
193 1 10.531946740242391 14.042587639391062 3.510614315556148 0 0 0
194 1 12.2873373860692 15.797916352164993 3.5105553244590872 0 0 0
17 1 14.042143378709614 17.553174259479956 0 0 -1 0
81 1 17.553174259479956 14.042143378709614 0 -1 0 0
97 1 14.042896886966862 14.042896886966863 0 0 0 0
98 1 15.800496294450982 15.800496294450982 0 0 0 0
99 1 15.798129299842278 14.042834482222474 1.7551231059854375 0 0 0
100 1 14.042834482222476 15.798129299842278 1.7551231059854382 0 0 0
197 1 14.042678966532446 14.042678966532447 3.510537816328741 0 0 0
198 1 15.798143714577003 15.798143714577005 3.5103435111744834 0 0 0
108 1 3.510575110916768 1.7552962597566992 5.265990143282815 0 0 0
123 1 1.7552962597566988 3.5105751109167675 5.265990143282814 0 0 0
202 1 1.755331485602228 1.7553314856022268 7.02136698097809 0 0 0
225 1 3.5106347069265986 3.5106347069265986 7.021282240996509 0 0 0
107 1 5.265761957486637 2.3395522514179743e-05 5.265762248786942 0 0 0
112 1 7.021123108414105 1.7553070887359388 5.2658146677541025 0 0 0
127 1 5.265844271188962 3.5105909418780175 5.265845744084225 0 0 0
206 1 5.265937957852282 1.755306617799398 7.021244751269606 0 0 0
209 1 7.0212059092751185 1.3244745228689299e-05 7.021197676267807 0 0 0
229 1 7.021233416294772 3.5106099762032925 7.021224884267165 0 0 0
111 1 8.776559714516752 1.2824941985360235e-05 5.265934372215069 0 0 0
131 1 8.77656148879796 3.510612415066348 5.265920643346679 0 0 0
210 1 8.776560044263288 1.7553078013939742 7.021225816000135 0 0 0
227 1 5.265957146779151 3.51062729128095 8.776600663640076 0 0 0
115 1 12.287398351594067 1.304399207643337e-05 5.265814667754103 0 0 0
116 1 10.531961745491419 1.7553073077860295 5.265934372215068 0 0 0
135 1 12.287326721628897 3.510598912043601 5.265887320969655 0 0 0
213 1 10.531961415744883 1.2331334040829012e-05 7.021225816000135 0 0 0
214 1 12.287315550733053 1.7553068879827842 7.021197676267809 0 0 0
233 1 10.531939800235262 3.510610572641645 7.02124910466894 0 0 0
104 1 17.553188054440977 1.7553334055671979 5.266179462595359 -1 0 0
221 1 17.5531906954515 3.510661005296779 7.021319763252802 -1 0 0
119 1 15.797946349091402 2.387297131373878e-05 5.2659901432828145 0 0 0
120 1 14.042759502521534 1.7552967372054993 5.265762248786942 0 0 0
139 1 15.797983219541315 3.5105382404668544 5.265805107463904 0 0 0
217 1 14.042583502155887 1.351492861760541e-05 7.021244751269606 0 0 0
218 1 15.797860454711392 1.7553307645566694 7.021319763252802 0 0 0
237 1 14.042610791793576 3.510609554525771 7.021208104437629 0 0 0
204 1 17.55318615107608 1.7553353089320896 8.776600663640076 -1 0 0
220 1 14.042549718043736 1.7553231077045155 8.776600663640076 0 0 0
239 1 15.797866890407311 3.5106545696008586 8.776600663640076 0 0 0
124 1 2.3395522513324226e-05 5.265761957486636 5.265762248786942 0 0 0
128 1 3.510590941878018 5.265844271188962 5.265845744084225 0 0 0
143 1 1.7553070887359383 7.0211231084141055 5.265814667754103 0 0 0
222 1 1.7553066177993977 5.265937957852283 7.021244751269607 0 0 0
241 1 1.3244745229744617e-05 7.021205909275119 7.021197676267809 0 0 0
245 1 3.5106099762032916 7.021233416294772 7.0212248842671645 0 0 0
144 1 1.282494198570917e-05 8.776559714516752 5.265934372215069 0 0 0
148 1 3.5106124150663476 8.77656148879796 5.265920643346679 0 0 0
242 1 1.7553078013939742 8.776560044263286 7.021225816000136 0 0 0
228 1 3.5106272912809504 5.265957146779151 8.776600663640076 0 0 0
243 1 1.7553075782606 7.0212627056832195 8.776600663640076 0 0 0
132 1 7.0212248461705915 5.265917019042708 5.265905832895931 0 0 0
147 1 5.265917019042709 7.021224846170591 5.26590583289593 0 0 0
226 1 5.265926762774845 5.265926762774845 7.021237042041422 0 0 0
249 1 7.021254918788089 7.021254918788089 7.021258729113388 0 0 0
151 1 8.776586292162676 7.02125448645912 5.265933771980727 0 0 0
230 1 8.776585983119388 5.265929399237532 7.021257605261793 0 0 0
152 1 7.021254486459121 8.776586292162674 5.265933771980726 0 0 0
246 1 5.265929399237533 8.776585983119388 7.021257605261794 0 0 0
250 1 8.776592459400446 8.776592459400446 7.021267273197995 0 0 0
136 1 10.531939151387434 5.265927048074005 5.2659322509383255 0 0 0
155 1 12.287276326913108 7.021245133095063 5.265927651922077 0 0 0
234 1 12.287277955085083 5.265923839481773 7.021248541553 0 0 0
253 1 10.531931188345762 7.021257141217346 7.021264949785227 0 0 0
156 1 10.531930609424863 8.776590850583307 5.265937304248685 0 0 0
254 1 12.287264318790827 8.776590271662407 7.021264949785229 0 0 0
140 1 14.042633022945576 5.265888437062594 5.265874742756743 0 0 0
159 1 15.79792254796457 7.021194738379272 5.265887320969654 0 0 0
238 1 15.797911905482401 5.265910668214595 7.021208104437629 0 0 0
257 1 14.042597620526397 7.021243504923088 7.021248541553 0 0 0
160 1 14.042594411934164 8.776582308620736 5.265932250938325 0 0 0
258 1 15.797910887366525 8.77658165977291 7.021249104668941 0 0 0
224 1 17.553198352303657 5.265971741964435 8.776600663640076 -1 0 0
260 1 14.042591520563395 8.776588805085526 8.776600663640076 0 0 0
163 1 1.7553073077860297 10.531961745491419 5.265934372215068 0 0 0
164 1 1.3043992075068467e-05 12.287398351594065 5.265814667754102 0 0 0
168 1 3.5105989120436014 12.287326721628897 5.265887320969655 0 0 0
261 1 1.2331334040315688e-05 10.531961415744885 7.021225816000136 0 0 0
262 1 1.7553068879827851 12.287315550733053 7.021197676267809 0 0 0
265 1 3.5106105726416446 10.53193980023526 7.02124910466894 0 0 0
167 1 5.265927048074005 10.531939151387434 5.265932250938326 0 0 0
172 1 7.021245133095062 12.287276326913107 5.265927651922077 0 0 0
266 1 5.265923839481773 12.287277955085083 7.021248541553 0 0 0
269 1 7.021257141217346 10.531931188345762 7.021264949785229 0 0 0
171 1 8.776590850583307 10.531930609424863 5.265937304248686 0 0 0
270 1 8.776590271662409 12.287264318790825 7.021264949785228 0 0 0
271 1 8.776592357807143 10.531929102201028 8.776600663640076 0 0 0
175 1 12.28726697354905 10.531935167845495 5.265933771980726 0 0 0
176 1 10.531935167845495 12.28726697354905 5.265933771980727 0 0 0
273 1 10.531929000607724 10.531929000607727 7.021267273197996 0 0 0
274 1 12.287266541220081 12.287266541220083 7.021258729113388 0 0 0
179 1 15.797909044941823 10.531959971210213 5.265920643346681 0 0 0
180 1 14.042604440965464 12.28729661383758 5.265905832895932 0 0 0
277 1 14.042592060770637 10.531935476888783 7.021257605261794 0 0 0
278 1 15.797911483804876 12.2872880437134 7.0212248842671645 0 0 0
103 1 1.7553334055671974 17.553188054440973 5.2661794625953595 0 -1 0
205 1 3.510661005296778 17.5531906954515 7.021319763252801 0 -1 0
183 1 1.7552967372055006 14.042759502521536 5.265762248786942 0 0 0
184 1 2.3872971315398973e-05 15.797946349091404 5.265990143282815 0 0 0
188 1 3.5105382404668535 15.797983219541317 5.265805107463904 0 0 0
281 1 1.3514928616138552e-05 14.042583502155889 7.021244751269606 0 0 0
282 1 1.7553307645566698 15.797860454711392 7.0213197632528015 0 0 0
285 1 3.510609554525771 14.042610791793575 7.021208104437629 0 0 0
187 1 5.265888437062594 14.042633022945576 5.265874742756743 0 0 0
192 1 7.021194738379272 15.79792254796457 5.2658873209696555 0 0 0
286 1 5.265910668214596 15.7979119054824 7.021208104437629 0 0 0
289 1 7.021243504923087 14.042597620526399 7.021248541552999 0 0 0
191 1 8.776582308620737 14.042594411934166 5.265932250938325 0 0 0
290 1 8.776581659772908 15.797910887366527 7.021249104668939 0 0 0
195 1 12.287296613837581 14.042604440965464 5.26590583289593 0 0 0
196 1 10.531959971210211 15.797909044941822 5.2659206433466785 0 0 0
293 1 10.531935476888785 14.042592060770637 7.021257605261793 0 0 0
294 1 12.287288043713401 15.797911483804876 7.021224884267165 0 0 0
201 1 17.553189974405942 17.553189974405942 7.021366980978091 -1 -1 0
199 1 15.797930518130153 14.042677188819207 5.265845744084225 0 0 0
200 1 14.042677188819209 15.797930518130153 5.265845744084225 0 0 0
297 1 14.042594697233326 14.042594697233326 7.021237042041422 0 0 0
298 1 15.797886753081572 15.79788675308157 7.021282240996509 0 0 0
208 1 3.5106673400110227 1.7553237977581537 8.776600663640078 0 0 0
223 1 1.7553237977581544 3.510667340011023 8.776600663640078 0 0 0
302 1 1.755331485602229 1.7553314856022284 10.531834346302068 0 0 0
308 1 3.510575110916767 1.7552962597566997 12.287211183997341 0 0 0
323 1 1.7552962597566997 3.510575110916768 12.287211183997341 0 0 0
325 1 3.5106347069265977 3.5106347069265973 10.531919086283647 0 0 0
212 1 7.0212627056832195 1.7553075782606007 8.776600663640078 0 0 0
306 1 5.265937957852283 1.7553066177993977 10.531956576010549 0 0 0
307 1 5.265761957486636 2.3395522512894326e-05 12.287439078493213 0 0 0
309 1 7.021205909275118 1.3244745230379448e-05 10.532003651012348 0 0 0
312 1 7.021123108414105 1.7553070887359388 12.287386659526053 0 0 0
327 1 5.265844271188962 3.510590941878017 12.287355583195932 0 0 0
329 1 7.021233416294772 3.5106099762032925 10.531976443012992 0 0 0
211 1 8.776581595627126 1.2307916166441805e-05 8.776600663640078 0 0 0
231 1 8.776584973508747 3.510612151650425 8.776600663640078 0 0 0
310 1 8.776560044263288 1.7553078013939742 10.53197551128002 0 0 0
311 1 8.776559714516752 1.282494198413462e-05 12.287266955065087 0 0 0
331 1 8.77656148879796 3.510612415066347 12.287280683933476 0 0 0
215 1 12.287258754324952 1.2554467413390298e-05 8.776600663640078 0 0 0
216 1 10.531939864381044 1.7553078248118492 8.776600663640078 0 0 0
235 1 12.287275019217663 3.5106113259566025 8.776600663640078 0 0 0
313 1 10.531961415744883 1.2331334041062509e-05 10.53197551128002 0 0 0
314 1 12.287315550733053 1.755306887982786 10.532003651012348 0 0 0
315 1 12.287398351594067 1.3043992074710194e-05 12.287386659526053 0 0 0
316 1 10.531961745491417 1.7553073077860297 12.287266955065087 0 0 0
333 1 10.53193980023526 3.5106105726416432 10.531952222611215 0 0 0
335 1 12.287326721628899 3.510598912043601 12.287314006310503 0 0 0
304 1 17.553188054440973 1.7553334055671985 12.287021864684798 -1 0 0
321 1 17.5531906954515 3.5106610052967797 10.531881564027355 -1 0 0
317 1 14.042583502155887 1.3514928615377537e-05 10.53195657601055 0 0 0
318 1 15.79786045471139 1.7553307645566698 10.531881564027355 0 0 0
319 1 15.797946349091404 2.3872971314562104e-05 12.287211183997341 0 0 0
320 1 14.042759502521534 1.7552967372055013 12.287439078493215 0 0 0
337 1 14.042610791793573 3.5106095545257707 10.531993222842528 0 0 0
339 1 15.797983219541317 3.510538240466853 12.287396219816252 0 0 0
322 1 1.755306617799398 5.265937957852283 10.53195657601055 0 0 0
324 1 2.3395522513223094e-05 5.265761957486636 12.287439078493211 0 0 0
328 1 3.5105909418780166 5.265844271188962 12.28735558319593 0 0 0
341 1 1.3244745227920058e-05 7.0212059092751185 10.532003651012348 0 0 0
343 1 1.755307088735939 7.021123108414104 12.287386659526053 0 0 0
345 1 3.510609976203293 7.0212334162947725 10.531976443012992 0 0 0
244 1 1.2307916165291414e-05 8.776581595627125 8.776600663640078 0 0 0
248 1 3.5106121516504256 8.776584973508747 8.776600663640078 0 0 0
342 1 1.7553078013939738 8.776560044263286 10.53197551128002 0 0 0
344 1 1.2824941984401148e-05 8.776559714516752 12.287266955065087 0 0 0
348 1 3.5106124150663476 8.77656148879796 12.287280683933476 0 0 0
232 1 7.0212575399879125 5.265930617449759 8.776600663640078 0 0 0
247 1 5.265930617449758 7.0212575399879125 8.776600663640078 0 0 0
326 1 5.265926762774845 5.265926762774845 10.531964285238734 0 0 0
332 1 7.02122484617059 5.26591701904271 12.287295494384223 0 0 0
347 1 5.26591701904271 7.021224846170591 12.287295494384225 0 0 0
349 1 7.021254918788087 7.021254918788087 10.531942598166768 0 0 0
251 1 8.776592468657135 7.021258946364896 8.776600663640078 0 0 0
330 1 8.776585983119386 5.265929399237532 10.531943722018363 0 0 0
351 1 8.776586292162674 7.02125448645912 12.28726755529943 0 0 0
252 1 7.021258946364896 8.776592468657135 8.776600663640078 0 0 0
346 1 5.265929399237533 8.776585983119386 10.531943722018363 0 0 0
352 1 7.021254486459119 8.776586292162676 12.28726755529943 0 0 0
350 1 8.776592459400447 8.776592459400446 10.531934054082159 0 0 0
236 1 10.531932654922645 5.265929939444774 8.776600663640078 0 0 0
255 1 12.287266278878443 7.021255181129728 8.776600663640078 0 0 0
334 1 12.287277955085083 5.265923839481773 10.531952785727157 0 0 0
336 1 10.531939151387434 5.265927048074005 12.28726907634183 0 0 0
353 1 10.531931188345762 7.0212571412173475 10.531936377494928 0 0 0
355 1 12.287276326913108 7.0212451330950625 12.287273675358078 0 0 0
256 1 10.531929102201028 8.776592357807141 8.77660066364008 0 0 0
354 1 12.287264318790825 8.776590271662407 10.53193637749493 0 0 0
356 1 10.531930609424863 8.776590850583307 12.287264023031469 0 0 0
240 1 14.042593203477045 5.265928256531125 8.776600663640078 0 0 0
259 1 15.79791013405157 7.021246440790508 8.776600663640078 0 0 0
338 1 15.7979119054824 5.265910668214597 10.531993222842528 0 0 0
340 1 14.042633022945575 5.265888437062594 12.287326584523413 0 0 0
357 1 14.042597620526399 7.021243504923087 10.531952785727157 0 0 0
359 1 15.79792254796457 7.021194738379273 12.287314006310503 0 0 0
358 1 15.797910887366527 8.776581659772908 10.531952222611217 0 0 0
360 1 14.042594411934164 8.776582308620737 12.28726907634183 0 0 0
263 1 1.7553078248118488 10.531939864381044 8.776600663640078 0 0 0
264 1 1.2554467416370403e-05 12.28725875432495 8.776600663640078 0 0 0
268 1 3.510611325956602 12.287275019217665 8.776600663640078 0 0 0
361 1 1.2331334040650883e-05 10.531961415744885 10.531975511280018 0 0 0
362 1 1.7553068879827858 12.287315550733053 10.532003651012348 0 0 0
363 1 1.7553073077860302 10.531961745491417 12.287266955065087 0 0 0
364 1 1.3043992074818907e-05 12.287398351594067 12.287386659526053 0 0 0
365 1 3.510610572641644 10.53193980023526 10.531952222611217 0 0 0
368 1 3.510598912043602 12.287326721628897 12.287314006310503 0 0 0
267 1 5.265929939444776 10.531932654922645 8.776600663640078 0 0 0
272 1 7.021255181129728 12.287266278878443 8.776600663640078 0 0 0
366 1 5.265923839481773 12.287277955085083 10.531952785727157 0 0 0
367 1 5.265927048074005 10.531939151387434 12.28726907634183 0 0 0
369 1 7.021257141217346 10.531931188345764 10.531936377494928 0 0 0
372 1 7.021245133095062 12.287276326913108 12.287273675358078 0 0 0
370 1 8.776590271662407 12.287264318790825 10.531936377494928 0 0 0
371 1 8.776590850583307 10.531930609424863 12.28726402303147 0 0 0
275 1 12.287262513643274 10.531928991351037 8.776600663640078 0 0 0
276 1 10.531928991351036 12.287262513643274 8.776600663640078 0 0 0
373 1 10.531929000607725 10.531929000607724 10.53193405408216 0 0 0
374 1 12.287266541220083 12.287266541220083 10.531942598166767 0 0 0
375 1 12.28726697354905 10.531935167845495 12.287267555299431 0 0 0
376 1 10.531935167845496 12.287266973549052 12.28726755529943 0 0 0
279 1 15.797909308357744 10.531936486499424 8.776600663640078 0 0 0
280 1 14.042590842558411 12.287263920020258 8.776600663640078 0 0 0
377 1 14.042592060770637 10.531935476888785 10.531943722018365 0 0 0
378 1 15.797911483804876 12.287288043713398 10.531976443012994 0 0 0
379 1 15.797909044941823 10.531959971210211 12.287280683933476 0 0 0
380 1 14.042604440965462 12.287296613837581 12.287295494384225 0 0 0
203 1 1.7553353089320882 17.553186151076083 8.776600663640078 0 -1 0
303 1 1.755333405567198 17.553188054440973 12.287021864684798 0 -1 0
305 1 3.510661005296779 17.5531906954515 10.531881564027353 0 -1 0
283 1 1.7553231077045162 14.042549718043736 8.776600663640078 0 0 0
288 1 3.510654569600859 15.797866890407311 8.776600663640078 0 0 0
381 1 1.3514928617720242e-05 14.042583502155889 10.531956576010549 0 0 0
382 1 1.7553307645566694 15.797860454711392 10.531881564027353 0 0 0
383 1 1.7552967372055013 14.042759502521534 12.287439078493213 0 0 0
384 1 2.387297131525174e-05 15.797946349091404 12.287211183997341 0 0 0
385 1 3.510609554525771 14.042610791793576 10.531993222842528 0 0 0
388 1 3.5105382404668535 15.797983219541317 12.287396219816253 0 0 0
207 1 5.265971741964436 17.553198352303657 8.776600663640078 0 -1 0
287 1 5.265928256531125 14.042593203477047 8.776600663640078 0 0 0
292 1 7.021246440790506 15.797910134051568 8.776600663640078 0 0 0
386 1 5.2659106682145955 15.797911905482401 10.531993222842528 0 0 0
387 1 5.2658884370625945 14.042633022945576 12.287326584523413 0 0 0
389 1 7.0212435049230875 14.042597620526397 10.531952785727155 0 0 0
392 1 7.021194738379272 15.79792254796457 12.287314006310503 0 0 0
291 1 8.776588805085526 14.042591520563395 8.776600663640078 0 0 0
390 1 8.77658165977291 15.797910887366525 10.531952222611215 0 0 0
391 1 8.776582308620737 14.042594411934166 12.287269076341829 0 0 0
295 1 12.28726392002026 14.042590842558413 8.776600663640078 0 0 0
296 1 10.531936486499424 15.797909308357744 8.776600663640078 0 0 0
393 1 10.531935476888783 14.042592060770637 10.531943722018363 0 0 0
394 1 12.2872880437134 15.797911483804878 10.531976443012992 0 0 0
395 1 12.287296613837581 14.042604440965464 12.287295494384225 0 0 0
396 1 10.531959971210211 15.797909044941823 12.287280683933476 0 0 0
301 1 17.553189974405942 17.553189974405942 10.531834346302068 -1 -1 0
219 1 15.79785411999715 17.553197662250014 8.776600663640078 0 -1 0
284 1 17.553197662250014 15.797854119997147 8.776600663640078 -1 0 0
299 1 15.797894168727218 14.04256431322902 8.776600663640078 0 0 0
300 1 14.04256431322902 15.797894168727218 8.776600663640078 0 0 0
397 1 14.042594697233325 14.042594697233325 10.531964285238734 0 0 0
398 1 15.797886753081572 15.797886753081572 10.531919086283649 0 0 0
399 1 15.797930518130153 14.042677188819207 12.287355583195932 0 0 0
400 1 14.042677188819209 15.797930518130155 12.28735558319593 0 0 0
401 1 0.00019224593183087563 0.0001922459318298771 14.042501443837255 0 0 0
402 1 1.7551278867961846 1.7551278867961848 14.042501443837255 0 0 0
403 1 1.752870245451936 0.002449887276077264 15.80283064962412 0 0 0
404 1 0.0024498872760789258 1.7528702454519367 15.802830649624118 0 0 0
405 1 3.5102048114078794 0.00018765328670998206 14.043037935086904 0 0 0
408 1 3.5080051712662748 1.7551392295774195 15.800490560642753 0 0 0
421 1 0.00018765328670968057 3.5102048114078794 14.043037935086904 0 0 0
423 1 1.7551392295774186 3.5080051712662743 15.800490560642753 0 0 0
425 1 3.510377745431167 3.5103777454311658 14.042857816105673 0 0 0
406 1 5.265651808407722 1.7552992068187483 14.042875002301072 0 0 0
407 1 5.265869096967373 0.0001860383130769942 15.79804977712986 0 0 0
409 1 7.021218441994339 2.2758320772447837e-05 14.042623460895205 0 0 0
412 1 7.0214316810539765 1.7553356414033527 15.797853663800584 0 0 0
427 1 5.2656869777856965 3.5103921601658916 15.798078221294716 0 0 0
429 1 7.021184073938969 3.510605107843175 14.04264600282107 0 0 0
410 1 8.776610353437427 1.7553247632118694 14.04253478518864 0 0 0
414 1 12.287303018013832 1.7552973744072407 14.042623460895205 0 0 0
416 1 10.531885969316019 1.7553321678853202 15.797852457402543 0 0 0
431 1 8.776636557699831 3.5106679497432904 15.797863644815447 0 0 0
433 1 10.531949312490303 3.5106297095314165 14.042561378168218 0 0 0
435 1 12.287277246303892 3.510578370269854 15.797891259299352 0 0 0
417 1 14.04286965160045 2.092590926796228e-05 14.042875002301072 0 0 0
418 1 15.798316648600292 1.7551324794413041 14.043037935086904 0 0 0
419 1 15.800516288741894 0.00018090315059557445 15.800490560642752 0 0 0
420 1 14.0426523630408 1.7551340944149343 15.79804977712986 0 0 0
437 1 14.042720307327627 3.5105332642794704 14.042723739936388 0 0 0
439 1 15.798288782906543 3.510232677101629 15.798264537845167 0 0 0
422 1 1.755299206818748 5.265651808407722 14.042875002301072 0 0 0
424 1 0.0001860383130773798 5.265869096967373 15.798049777129862 0 0 0
428 1 3.5103921601658925 5.265686977785697 15.798078221294716 0 0 0
441 1 2.2758320773214243e-05 7.02121844199434 14.042623460895205 0 0 0
443 1 1.7553356414033519 7.0214316810539765 15.797853663800584 0 0 0
445 1 3.5106051078431757 7.021184073938969 14.042646002821071 0 0 0
426 1 5.265842493475724 5.265842493475724 14.042663510951416 0 0 0
432 1 7.021173618213636 5.265862171313759 15.797911794490219 0 0 0
447 1 5.265862171313759 7.021173618213635 15.79791179449022 0 0 0
449 1 7.021226068631037 7.021226068631038 14.042599367416038 0 0 0
430 1 8.776574719765781 5.265933820617111 14.04258701172401 0 0 0
451 1 8.776562842388497 7.021237370310565 15.797902481666744 0 0 0
446 1 5.26593382061711 8.776574719765781 14.042587011724008 0 0 0
452 1 7.0212373703105655 8.776562842388497 15.797902481666746 0 0 0
450 1 8.776585628273939 8.77658562827394 14.042588045065013 0 0 0
434 1 12.287312850316477 5.265902322284004 14.042602805140293 0 0 0
436 1 10.531961716605448 5.26594528237463 15.797888277905136 0 0 0
453 1 10.53193845305935 7.021251109173546 14.042589055559441 0 0 0
455 1 12.287312207033562 7.021209252974608 15.797904894322016 0 0 0
454 1 12.287270350834625 8.77658300694882 14.04258905555944 0 0 0
456 1 10.531937289713488 8.776584170294681 15.797901736220055 0 0 0
438 1 15.7979881957287 5.2658011526805435 14.042723739936388 0 0 0
440 1 14.04271134215368 5.2658101178544925 15.797926996273551 0 0 0
457 1 14.042619137724166 7.021208609691697 14.042602805140291 0 0 0
459 1 15.797943089738318 7.021244213704278 15.797891259299352 0 0 0
458 1 15.797891750476754 8.776572147517868 14.042561378168216 0 0 0
460 1 14.042576177633542 8.776559743402721 15.797888277905136 0 0 0
442 1 1.7553247632118696 8.776610353437427 14.04253478518864 0 0 0
448 1 3.51066794974329 8.776636557699833 15.797863644815447 0 0 0
462 1 1.7552973744072398 12.28730301801383 14.042623460895204 0 0 0
463 1 1.7553321678853198 10.531885969316017 15.797852457402541 0 0 0
465 1 3.510629709531416 10.531949312490301 14.042561378168216 0 0 0
468 1 3.510578370269855 12.287277246303892 15.797891259299353 0 0 0
466 1 5.265902322284004 12.287312850316477 14.042602805140291 0 0 0
467 1 5.265945282374628 10.531961716605448 15.797888277905137 0 0 0
469 1 7.021251109173546 10.531938453059349 14.04258905555944 0 0 0
472 1 7.021209252974608 12.287312207033564 15.797904894322016 0 0 0
470 1 8.77658300694882 12.287270350834625 14.04258905555944 0 0 0
471 1 8.776584170294683 10.531937289713488 15.797901736220055 0 0 0
473 1 10.531935831734232 10.531935831734232 14.042588045065013 0 0 0
474 1 12.287295391377132 12.287295391377134 14.042599367416038 0 0 0
475 1 12.287284089697605 10.531958617619674 15.797902481666746 0 0 0
476 1 10.531958617619674 12.287284089697605 15.797902481666746 0 0 0
444 1 17.553189292122852 8.776635490692152 15.797852457402543 -1 0 0
461 1 17.5531966967963 10.531911106570744 14.042534785188638 -1 0 0
464 1 17.553185818604817 12.287089778954194 15.797853663800584 -1 0 0
477 1 14.04258763939106 10.53194674024239 14.04258701172401 0 0 0
478 1 15.797916352164995 12.2873373860692 14.04264600282107 0 0 0
479 1 15.79785351026488 10.531884902308338 15.797863644815447 0 0 0
480 1 14.042659288694413 12.287347841794533 15.797911794490219 0 0 0
481 1 2.0925909266193145e-05 14.042869651600448 14.042875002301072 0 0 0
482 1 1.7551324794413048 15.798316648600292 14.043037935086904 0 0 0
483 1 1.7551340944149352 14.042652363040798 15.79804977712986 0 0 0
484 1 0.0001809031505955519 15.800516288741894 15.800490560642753 0 0 0
485 1 3.5105332642794713 14.042720307327627 14.042723739936388 0 0 0
488 1 3.5102326771016297 15.79828878290654 15.798264537845167 0 0 0
486 1 5.2658011526805435 15.7979881957287 14.042723739936388 0 0 0
487 1 5.2658101178544925 14.042711342153678 15.797926996273553 0 0 0
489 1 7.021208609691696 14.042619137724166 14.042602805140291 0 0 0
492 1 7.021244213704278 15.797943089738318 15.797891259299353 0 0 0
490 1 8.776572147517868 15.797891750476754 14.042561378168218 0 0 0
491 1 8.776559743402721 14.042576177633542 15.797888277905137 0 0 0
411 1 8.776635490692152 17.55318929212285 15.797852457402543 0 -1 0
413 1 10.531911106570744 17.5531966967963 14.04253478518864 0 -1 0
415 1 12.287089778954194 17.55318581860482 15.797853663800584 0 -1 0
493 1 10.53194674024239 14.04258763939106 14.04258701172401 0 0 0
494 1 12.2873373860692 15.797916352164993 14.04264600282107 0 0 0
495 1 12.287347841794533 14.042659288694413 15.79791179449022 0 0 0
496 1 10.531884902308338 15.797853510264877 15.797863644815447 0 0 0
497 1 14.042678966532447 14.042678966532447 14.042663510951414 0 0 0
498 1 15.798143714577005 15.798143714577003 14.042857816105672 0 0 0
499 1 15.798129299842278 14.042834482222474 15.798078221294716 0 0 0
500 1 14.042834482222474 15.798129299842278 15.798078221294718 0 0 0

Velocities

1 3.5088105547602104e-09 3.508822941279658e-09 -9.516249750396152e-16
2 -3.5088170844242095e-09 -3.5088166875812e-09 7.298262241166612e-17
3 -1.1110638885332368e-09 1.1110673554435655e-09 -2.9326634408076857e-09
4 1.1110649989819039e-09 -1.1110693370403905e-09 -2.9326682026520492e-09
5 -4.425337821561719e-09 -5.813781698169724e-12 -1.5010387814069195e-16
8 3.756184263903706e-09 -4.166171431259734e-09 -2.4721400756628473e-09
21 -5.81193153980157e-12 -4.425339367584465e-09 -4.161235450515545e-16
23 -4.166168817939157e-09 3.7561892639434335e-09 -2.4721415705404507e-09
25 5.574744915144388e-09 5.574748183614604e-09 -1.3570776618654969e-15
101 2.651517071963257e-09 2.6515167171383644e-09 -5.552668676743194e-09
102 -2.6515128565020753e-09 -2.651520189942794e-09 -5.5526715701574755e-09
105 3.101951171257304e-09 3.48127713874607e-09 2.1643432415769677e-09
121 3.4812693281272065e-09 3.1019538769076237e-09 2.1643410327924722e-09
125 -3.4956073110462092e-09 -3.4956095142474254e-09 1.7626650224333604e-09
6 -7.488361522499548e-09 -5.968288676940628e-10 -1.8251084380341906e-15
7 -4.2568383850422436e-10 3.02540163939182e-09 -2.7147655450387017e-09
12 1.0940602246589354e-09 -2.455720966481981e-10 1.1458475778619604e-10
27 3.8182774407592055e-10 -2.739374584010937e-09 -3.4113759555732793e-09
29 -1.8095546095947964e-09 -1.5327424023520123e-09 5.231014819167913e-17
106 1.2573552788555362e-09 -2.5475342815661985e-09 2.008238882870623e-09
109 1.4728465859897774e-09 -3.5046343916955556e-10 2.5254167033390033e-10
129 2.9736312240674272e-09 -1.9150690084186453e-09 7.075563771205553e-10
10 2.7078686709654887e-09 -1.6064871474361519e-09 1.296702265033173e-16
14 -7.084134650728643e-09 -1.2801485579218855e-09 -1.3381727927280902e-15
16 -8.267209037723651e-11 5.534343326687673e-10 4.127992881808842e-10
31 -1.095889523213516e-09 9.122175055187545e-10 4.403093734114497e-10
33 2.595736415642733e-10 -9.52435523151241e-10 -2.174333934412443e-15
35 -4.6275438864686374e-09 9.03201511093574e-10 -4.5987399125222486e-10
110 -1.3932683711412138e-09 -1.060476257417034e-09 3.1725535390194996e-09
114 -1.4728432404979336e-09 3.5045957591775903e-10 2.525428591741133e-10
133 -2.4032220857434935e-09 -2.8519318234402185e-09 2.797104658859496e-10
18 4.425344071077227e-09 5.808565418603568e-12 -6.011983228790165e-16
19 -3.75618655619334e-09 4.1661729721016865e-09 -2.472145288834196e-09
20 4.25686194965886e-10 -3.025403085804256e-09 -2.7147614580689267e-09
37 -1.0047241251612614e-09 4.986732666608307e-09 -5.2855352553113535e-15
39 -1.1366181061640672e-09 1.1366181185739132e-09 -6.9694029697653695e-09
117 -1.2573591848764046e-09 2.547533433405035e-09 2.0082358533026034e-09
118 -3.101951333013544e-09 -3.4812702381764325e-09 2.164343748646955e-09
137 -5.717728583981213e-10 -4.725734505889593e-10 -1.301888817110493e-09
22 -5.968242962291685e-10 -7.488363539460981e-09 -1.382756142621738e-15
24 3.02540114664496e-09 -4.25685055046713e-10 -2.7147614333137015e-09
28 -2.7393765974359087e-09 3.818262107254922e-10 -3.4113778701247034e-09
43 -2.4556787882937604e-10 1.0940570654206897e-09 1.1458547450890253e-10
45 -1.5327473298206195e-09 -1.8095526767716588e-09 5.70548996614596e-16
122 -2.5475358281783546e-09 1.257357458788867e-09 2.008237017829649e-09
141 -3.5045661262154024e-10 1.4728422399742541e-09 2.525448655261634e-10
145 -1.9150697233731214e-09 2.973634706958886e-09 7.07554824614298e-10
26 -1.3380388828653808e-09 -1.3380433132102966e-09 6.601392602698822e-17
32 -6.946550725267428e-10 -3.556181018293464e-10 -7.666389499742055e-10
47 -3.5561793043533005e-10 -6.946528154849605e-10 -7.666368991124818e-10
49 -3.8831359954868135e-09 -3.883138067337063e-09 -2.0370013763430206e-15
126 2.4325146446606287e-09 2.432510626275173e-09 1.52523261712433e-09
149 -5.804483659300576e-10 -5.804480116536539e-10 4.3364436709082304e-10
51 -2.749426895057289e-09 -1.2866596743718162e-09 -2.582947144979759e-09
130 1.5026023166097104e-10 -1.1407305509447348e-09 -2.4888253213036207e-09
52 -1.286658574679884e-09 -2.749428071391896e-09 -2.582945862423337e-09
146 -1.1407296472130012e-09 1.5025556522967342e-10 -2.488823026741534e-09
50 -3.4454566022133103e-09 -3.4454625654366657e-09 -3.9136831999183035e-16
150 -1.8694922696989777e-09 -1.869492326299173e-09 4.469520865504499e-09
30 -2.9794629711002774e-09 -6.320521891168166e-10 -1.3862926033445557e-15
34 -9.617051089323227e-10 -1.2921840525074297e-09 -5.682410876116322e-15
36 -3.3303058642214005e-10 1.7461888449000074e-09 -4.255771029348728e-09
53 6.357333580986679e-10 -1.6299501984638865e-09 2.3576404818784962e-17
55 -1.643465435942956e-09 1.6434657045690649e-09 -4.218154399196258e-09
134 -6.894883909238343e-09 3.4406699261213846e-09 -2.4857436655112115e-09
153 1.248101304009545e-09 -2.373288467771894e-09 -2.810376987700489e-09
54 1.6299464196278218e-09 -6.357343789316703e-10 8.015977638386887e-17
56 1.232871166587016e-09 -1.2328658330616748e-09 9.463252546060424e-10
154 2.373285526666927e-09 -1.2481024874432343e-09 -2.8103787753445464e-09
41 1.280151409589821e-09 7.0841370573316084e-09 -3.583613532455314e-16
38 -4.9867319840713875e-09 1.0047238608108223e-09 -9.430561927513984e-18
40 -7.075573213555683e-10 7.07561586032495e-10 -2.255606040860381e-09
57 1.292183691445381e-09 9.617055291725292e-10 -9.211301362699283e-15
59 -9.032034302129262e-10 4.627539865070738e-09 -4.5987705765837664e-10
138 4.7257120375758e-10 5.71771114922985e-10 -1.3018900236330095e-09
157 -3.440671533514157e-09 6.89488415745368e-09 -2.4857469568990365e-09
60 -1.746186931128732e-09 3.330278248244595e-10 -4.255770887869578e-09
158 2.8519343163503227e-09 2.403224309233599e-09 2.7971301553920244e-10
42 -1.6064787070832268e-09 2.707871211323108e-09 -8.110283257662026e-16
48 9.122180100538175e-10 -1.095892257487065e-09 4.4030681006683574e-10
62 -1.2801519494894914e-09 -7.084136262806766e-09 -1.3951337551516001e-15
63 5.534312653785003e-10 -8.266818325928253e-11 4.127983099074367e-10
65 -9.524372206523881e-10 2.5957140334236853e-10 -9.12112161426743e-16
68 9.032027606430294e-10 -4.627543281144444e-09 -4.5987140492061624e-10
142 -1.0604773415632741e-09 -1.393268543248969e-09 3.1725546848327737e-09
162 3.5046487850906973e-10 -1.472841017242959e-09 2.525414398745432e-10
165 -2.851929894890304e-09 -2.4032162152627267e-09 2.7971240416113073e-10
46 -6.320551027920709e-10 -2.979463854517852e-09 -6.507041682318987e-16
66 -1.2921767967836585e-09 -9.617085664466253e-10 -2.55536915822979e-16
67 1.7461879412606165e-09 -3.3302750245353005e-10 -4.255772405476309e-09
69 -1.6299510452585853e-09 6.357415568049555e-10 -6.129865252884089e-17
72 1.6434612686684982e-09 -1.6434642596301545e-09 -4.218162806542216e-09
166 3.440665443839307e-09 -6.894885865030056e-09 -2.4857451955169703e-09
169 -2.3732893970903963e-09 1.2480979876200258e-09 -2.810373217722844e-09
70 -6.357368602861131e-10 1.6299480582604818e-09 -2.2161820529657864e-16
71 -1.232866585023221e-09 1.232869229735499e-09 9.463250141267134e-10
170 -1.248095174252389e-09 2.373289161323415e-09 -2.810374625160536e-09
73 3.445461076897523e-09 3.4454553602110674e-09 -3.725071961368024e-16
74 3.883137580861894e-09 3.883142031258266e-09 -1.5230357512935084e-15
75 1.286655621037846e-09 2.749423692958816e-09 -2.5829504928292435e-09
76 2.7494298308319964e-09 1.2866622086764698e-09 -2.5829454427633313e-09
173 1.8694876778456477e-09 1.869491390807681e-09 4.469520202473371e-09
174 5.804477196223203e-10 5.804524192947681e-10 4.336487899875289e-10
44 -5.534393921652414e-10 8.267563811848622e-11 4.127996468369425e-10
61 1.606482137450128e-09 -2.7078692721638118e-09 2.71128655416027e-16
64 2.455682675453505e-10 -1.094058343851241e-09 1.1458330665847944e-10
161 1.0604756336369357e-09 1.393259638440869e-09 3.172551431141556e-09
58 9.524381224498724e-10 -2.59574791271741e-10 -2.174333934412443e-15
77 6.320545435938239e-10 2.9794653113669803e-09 -1.0487678188109388e-15
78 1.5327460885229057e-09 1.8095530992313627e-09 1.8128045017693874e-16
79 -9.122150594667545e-10 1.095888598723742e-09 4.403091582767557e-10
80 3.55620262226667e-10 6.946571739188725e-10 -7.666375013837153e-10
177 1.1407338833590417e-09 -1.5025631801691164e-10 -2.488819643674597e-09
178 1.9150636236759966e-09 -2.9736285370710166e-09 7.075528425742418e-10
82 5.8175486182496456e-12 4.425335274720589e-09 -1.1430135761207183e-15
83 -3.02540393573365e-09 4.256825182255545e-10 -2.714762777168776e-09
84 4.166170166509513e-09 -3.756188745262528e-09 -2.4721387661270976e-09
85 4.9867300272297876e-09 -1.0047191399304626e-09 -9.841675486541546e-16
88 1.1366183973326668e-09 -1.1366173876731305e-09 -6.969411225264546e-09
181 2.5475371201653386e-09 -1.2573556808332385e-09 2.0082387418542513e-09
182 -3.4812743522590733e-09 -3.1019520221813273e-09 2.1643398570666345e-09
185 -4.725740034556524e-10 -5.717753787157965e-10 -1.301885137423111e-09
9 7.084135935094739e-09 1.2801562356798874e-09 -1.7092893493619096e-16
86 1.0047182557692341e-09 -4.98672990630171e-09 4.0905062360591904e-16
87 7.075613587964745e-10 -7.075614391887916e-10 -2.2556108084791217e-09
89 9.6170335631212e-10 1.292177386525322e-09 -9.62506726726896e-16
92 4.6275410415333385e-09 -9.032024299839518e-10 -4.5986910916819705e-10
186 5.717782236743942e-10 4.725724725158192e-10 -1.3018853147664857e-09
189 6.894884954168088e-09 -3.4406658446282463e-09 -2.4857426621608985e-09
91 3.3302966949683737e-10 -1.746186561856744e-09 -4.255770906730702e-09
190 2.403218230654825e-09 2.8519348261445714e-09 2.797114821210926e-10
11 8.267004933172394e-11 -5.534295714138141e-10 4.1279924544865047e-10
13 -2.7078704504174506e-09 1.6064804576312846e-09 -3.536460722817744e-16
15 -1.0940576436320178e-09 2.4556662191229413e-10 1.1458689970257383e-10
113 1.3932675846410086e-09 1.0604767097593703e-09 3.1725550978204727e-09
90 -2.5956827887931994e-10 9.524367376307945e-10 -1.0867249096158693e-15
93 2.979462620990681e-09 6.320499230743513e-10 2.0074802178873114e-15
94 1.8095524541680334e-09 1.5327494824151023e-09 1.4893864196112288e-15
95 6.946521191076045e-10 3.5561377833113164e-10 -7.666405191635321e-10
96 1.0958901554820378e-09 -9.122164033218292e-10 4.403049599084676e-10
193 -1.5025973724096795e-10 1.1407244109351812e-09 -2.4888251036754456e-09
194 -2.973630357211649e-09 1.9150744659715166e-09 7.075551510185713e-10
17 7.488362871364609e-09 5.968225772145521e-10 -7.043450939612007e-17
81 5.968242396457969e-10 7.488362176744782e-09 -9.321521055227103e-16
97 1.338039927898734e-09 1.3380351709170042e-09 -1.5978908365931506e-15
98 -5.574743528630756e-09 -5.574743242177438e-09 -1.5371815941847795e-15
99 2.7393744101349514e-09 -3.818292948139475e-10 -3.411374716633206e-09
100 -3.818314591279099e-10 2.739377628582437e-09 -3.411376419439044e-09
197 -2.4325067471093033e-09 -2.4325156386671877e-09 1.525231158609226e-09
198 3.4956102704836337e-09 3.4956064328343394e-09 1.7626668283053861e-09
108 -2.255325189295618e-09 -1.313243153404035e-09 -2.9259374208143238e-09
123 -1.313240852125896e-09 -2.2553217872204026e-09 -2.925931023946286e-09
202 -4.732296998170901e-10 -4.732238846968416e-10 3.6156416304499418e-09
225 -1.7392237164349193e-09 -1.7392226811360429e-09 2.73973185376484e-09
107 -1.9355254611747113e-09 -1.4022979258994023e-09 -2.2830688337062295e-09
112 -1.388278231587446e-09 -2.130337274511559e-09 1.4274493055149302e-09
127 1.9912681761210743e-09 -1.6141769268852879e-09 5.2062567558935464e-09
206 4.510406976450973e-10 -2.3412057308788982e-09 3.957283101229604e-10
209 -1.2222036644049526e-09 -5.158962732637176e-11 -2.1401213198341614e-09
229 -2.5340873753416234e-09 -3.728444632680695e-09 -2.3209236368882143e-09
111 -9.895808656659433e-10 7.634742480762574e-10 3.323752884937477e-09
131 -1.746826135051689e-09 -5.740809406287196e-09 2.6787222114274496e-09
210 -2.333560632994722e-09 1.6697159294982924e-09 -3.122815297876239e-09
227 3.9613123179525165e-10 -6.7276330744350224e-09 4.14195068813643e-15
115 1.3882769000547266e-09 2.130334253407101e-09 1.4274466246796975e-09
116 9.895815315913115e-10 -7.634757168862777e-10 3.323756461478088e-09
135 -2.6036197702566896e-09 -2.7959462722300522e-09 4.379350576416667e-09
213 2.3335616510027e-09 -1.6697174784680888e-09 -3.1228149588917435e-09
214 1.222199424188546e-09 5.159636782050945e-11 -2.1401252640193352e-09
233 2.040835926645616e-09 1.3478813941446828e-11 -2.6400499371605573e-09
104 1.633354997548316e-09 -1.6333641970614762e-09 -4.334039096287869e-09
221 -1.798034905008747e-09 -1.0135698893972035e-10 6.617895559507078e-10
119 2.2553267158678298e-09 1.313246379982387e-09 -2.9259327238050736e-09
120 1.935526010274705e-09 1.4022981801607979e-09 -2.2830689358537666e-09
139 -5.259499454247492e-10 5.259490848859733e-10 -1.166664733467442e-09
217 -4.5103550416833515e-10 2.341198597757037e-09 3.95729066642254e-10
218 1.0135477747294835e-10 1.7980364427797514e-09 6.617875472410172e-10
237 -3.3977506661439747e-10 -2.612455782364458e-09 -6.548179546941911e-10
204 -4.5534396365756185e-10 4.553497786304579e-10 6.813433640098736e-15
220 -5.188559107191883e-11 9.640016977153033e-11 4.5198915088213115e-15
239 1.75721805292181e-09 -1.757217418912145e-09 7.202250919412908e-15
124 -1.402292334391223e-09 -1.9355224991586174e-09 -2.2830684454645463e-09
128 -1.6141794658315462e-09 1.991267682968994e-09 5.206258260862496e-09
143 -2.130337892213365e-09 -1.3882821731202742e-09 1.427446328993822e-09
222 -2.3412046627135e-09 4.510375753554985e-10 3.9572417866412493e-10
241 -5.159762326406605e-11 -1.2222051025656464e-09 -2.1401285318563955e-09
245 -3.728440672434095e-09 -2.534087564542272e-09 -2.32092284290213e-09
144 7.634732001050632e-10 -9.895792839838852e-10 3.3237548559249195e-09
148 -5.740806504031763e-09 -1.7468276368686758e-09 2.678723075502686e-09
242 1.6697146516571512e-09 -2.3335547506817196e-09 -3.1228163722972124e-09
228 -6.727634434835023e-09 3.961316897484962e-10 4.709828920142648e-15
243 1.531913951063085e-09 -2.9399596166611126e-09 5.540455132414466e-15
132 -1.6352367541930284e-09 1.1393246677809222e-09 5.863620617118748e-09
147 1.139323195027097e-09 -1.6352337110685765e-09 5.863622447237172e-09
226 7.472489956952184e-11 7.472493335929891e-11 -1.970757091198809e-09
249 -4.3123769650635465e-10 -4.3123855382509347e-10 -3.745251420607736e-09
151 -3.1527901230177095e-09 4.13530462280473e-09 2.20584815990882e-09
230 -1.486933554785469e-09 3.0405890422781547e-09 2.420085712427347e-09
152 4.135303463222341e-09 -3.152785621798529e-09 2.2058496073343045e-09
246 3.0405873882518045e-09 -1.4869349190350549e-09 2.420082266678223e-09
250 1.139485908876784e-09 1.1394847443495139e-09 -8.12231747692477e-09
136 2.7405700440738115e-09 8.317684193737267e-10 1.5679296863673973e-09
155 2.0275614021483167e-09 -2.027568258170573e-09 8.235163192981701e-10
234 1.8339428972732037e-09 3.469897400165671e-09 -6.577840539812856e-09
253 -3.5198730232818055e-10 -8.6279572920488e-10 2.178733757185623e-09
156 -5.162481822403149e-09 5.162483499274859e-09 -5.385739016427803e-10
254 8.627896979193238e-10 3.51994199195735e-10 2.1787303174480222e-09
140 -3.749218832887035e-09 3.749219246680569e-09 5.242056880232881e-09
159 2.7959465781924657e-09 2.6036228934350085e-09 4.379355056437805e-09
238 2.612452495750742e-09 3.39778195792727e-10 -6.548167582653229e-10
257 -3.4698903455021244e-09 -1.8339470861230958e-09 -6.5778404619048105e-09
160 -8.31762443210977e-10 -2.7405642837312326e-09 1.5679322984005105e-09
258 -1.3480608695263658e-11 -2.040839709353138e-09 -2.6400536911136145e-09
224 -9.6402692741551e-11 5.188664876838002e-11 4.994071950739124e-15
260 -8.62181532509147e-09 4.662791166353692e-09 8.002531720013673e-15
163 -7.634766905917967e-10 9.895806210607434e-10 3.3237582084896846e-09
164 2.1303399138900783e-09 1.3882840881137556e-09 1.4274532079993379e-09
168 -2.7959467429325943e-09 -2.6036210064385076e-09 4.379348462706787e-09
261 -1.6697150595289546e-09 2.333555959561877e-09 -3.122815508221976e-09
262 5.1593052977991934e-11 1.2222012316146802e-09 -2.1401275867372675e-09
265 1.348007233205403e-11 2.040839501662049e-09 -2.640047973246036e-09
167 8.317689045503512e-10 2.740567898019921e-09 1.5679280142108855e-09
172 -2.027562818504594e-09 2.0275658620995792e-09 8.235177624181977e-10
266 3.469896766535977e-09 1.8339425773343268e-09 -6.577838953162255e-09
269 -8.62795273590857e-10 -3.519885125116355e-10 2.1787284959635355e-09
171 5.162481325015808e-09 -5.162483205021066e-09 -5.385775686348211e-10
270 3.519857806282066e-10 8.628001230823471e-10 2.1787310782107163e-09
271 -5.069815531473736e-09 5.069815468995383e-09 4.255545674557251e-15
175 -4.135303963692257e-09 3.1527895479790655e-09 2.2058527284217528e-09
176 3.152790178191023e-09 -4.1353026339830255e-09 2.2058454830336865e-09
273 -1.1394799537970629e-09 -1.1394920162751561e-09 -8.122318238426529e-09
274 4.312408971540031e-10 4.312368000214657e-10 -3.7452532147445145e-09
179 5.740806607178534e-09 1.7468193998622424e-09 2.678719025960453e-09
180 -1.139328435516192e-09 1.6352373718948347e-09 5.86361714210403e-09
277 -3.0405908475319e-09 1.4869324351825262e-09 2.420081493443519e-09
278 3.728449432247306e-09 2.5340902333912977e-09 -2.3209179317896536e-09
103 -1.6333623250949336e-09 1.6333642960823764e-09 -4.334043380120625e-09
205 -1.0135228132108817e-10 -1.7980389969654846e-09 6.617964673532749e-10
183 1.4022932491557302e-09 1.9355211140448343e-09 -2.2830694059083376e-09
184 1.3132417990869306e-09 2.2553224721149623e-09 -2.925936650455296e-09
188 5.259556612293924e-10 -5.259533594355194e-10 -1.1666634036108576e-09
281 2.3412059983905096e-09 -4.510436946113692e-10 3.957290354035176e-10
282 1.7980375479237274e-09 1.013544680326351e-10 6.617956451466624e-10
285 -2.612455087387042e-09 -3.397688895963349e-10 -6.548177327950951e-10
187 3.749217633805821e-09 -3.749218367989803e-09 5.2420542373179016e-09
192 2.603620381369075e-09 2.795945885046164e-09 4.379344755906539e-09
286 3.3976917769355516e-10 2.6124582004532935e-09 -6.548178182353934e-10
289 -1.8339396037088296e-09 -3.4698983791620665e-09 -6.577838661846303e-09
191 -2.7405708995651297e-09 -8.31770148864187e-10 1.567932572623569e-09
290 -2.04083416565625e-09 -1.348485185872092e-11 -2.640046637642703e-09
195 1.6352353954921864e-09 -1.139328566547127e-09 5.863621664590325e-09
196 1.746827075172343e-09 5.74081303307502e-09 2.6787252479210375e-09
293 1.4869280807373392e-09 -3.040587467559564e-09 2.420084675374054e-09
294 2.534085845822361e-09 3.728449366822782e-09 -2.320924340740598e-09
201 4.732274170316936e-10 4.732269046869464e-10 3.6156397019000277e-09
199 1.6141783883898458e-09 -1.9912662772258565e-09 5.206255482383189e-09
200 -1.9912681503712193e-09 1.6141791257419066e-09 5.2062580645889265e-09
297 -7.472694164535094e-11 -7.472844464115814e-11 -1.9707567577492428e-09
298 1.7392196259286833e-09 1.7392271857028884e-09 2.739732400454526e-09
208 -1.1162041389091334e-10 -2.9253020042869008e-09 -1.7760584645713592e-15
223 -2.9253028730774183e-09 -1.116229837190386e-10 4.641604698698289e-17
302 -4.732340897436674e-10 -4.732306499462043e-10 -3.6156432483807223e-09
308 -2.255321294473542e-09 -1.3132442332033758e-09 2.9259372775876644e-09
323 -1.313243346877907e-09 -2.255323423422897e-09 2.9259383562081847e-09
325 -1.7392183975979922e-09 -1.7392179225334352e-09 -2.7397328604891255e-09
212 -2.9399575065728812e-09 1.5319123785168836e-09 -1.7393354512061618e-15
306 4.510381904786355e-10 -2.3412029217640784e-09 -3.957248382025873e-10
307 -1.9355241466704186e-09 -1.4022905355667926e-09 2.2830710732298442e-09
309 -1.2221995291035473e-09 -5.159679455343667e-11 2.1401257286218624e-09
312 -1.38827858184441e-09 -2.1303402262774423e-09 -1.427449776600969e-09
327 1.9912664162161306e-09 -1.6141758658457661e-09 -5.206261648144899e-09
329 -2.5340896940810374e-09 -3.728445231816082e-09 2.3209223214215255e-09
211 -2.01447734207557e-09 -3.497120959271724e-09 -3.769461911065892e-16
231 -1.117042426274151e-09 5.0321640079151955e-09 -1.3120983020471586e-15
310 -2.3335624542719944e-09 1.6697141706984928e-09 3.1228159656042293e-09
311 -9.895820727778701e-10 7.634783715894602e-10 -3.3237552237168347e-09
331 -1.746828759302579e-09 -5.740804927617558e-09 -2.6787189478774265e-09
215 2.9399563395408425e-09 -1.5319127958192489e-09 -1.1463105889820952e-16
216 2.014477876254681e-09 3.4971164184561557e-09 -1.4134330974855554e-15
235 1.5934818897513054e-09 -1.6551705997520302e-09 -1.5909790819773312e-15
313 2.3335616046373057e-09 -1.669715325942329e-09 3.1228159876334324e-09
314 1.2222000654667569e-09 5.15887762181578e-11 2.1401260999502386e-09
315 1.3882768823309801e-09 2.1303403931656944e-09 -1.4274490615749602e-09
316 9.89586518406204e-10 -7.634770890330382e-10 -3.3237539544221405e-09
333 2.0408397201461903e-09 1.3485093774737238e-11 2.6400519378671638e-09
335 -2.6036274262885663e-09 -2.795945057367002e-09 -4.379349351069865e-09
304 1.6333661067502664e-09 -1.6333654560414934e-09 4.334039281952057e-09
321 -1.798038651888883e-09 -1.0135862661574009e-10 -6.617990831758951e-10
317 -4.510372240670667e-10 2.3412087497569516e-09 -3.957296077207446e-10
318 1.0135644786122977e-10 1.7980381155256734e-09 -6.617964190421506e-10
319 2.2553209408274694e-09 1.3132462503121604e-09 2.9259371882920313e-09
320 1.9355268065677777e-09 1.402290010347118e-09 2.2830669924099867e-09
337 -3.39764863335802e-10 -2.6124540078824063e-09 6.548150723313495e-10
339 -5.259574539202739e-10 5.259566311037457e-10 1.166664730210721e-09
322 -2.341204075145286e-09 4.5104037623239095e-10 -3.9573202489164866e-10
324 -1.4022925017836974e-09 -1.9355221973806356e-09 2.283076110153753e-09
328 -1.614174294347149e-09 1.9912671147776377e-09 -5.206255840155131e-09
341 -5.158780722791975e-11 -1.2222043151137254e-09 2.1401253796910714e-09
343 -2.130339981082832e-09 -1.3882762952278478e-09 -1.4274494614875834e-09
345 -3.728445594008601e-09 -2.534091091572433e-09 2.320922051619043e-09
244 -3.4971154600753e-09 -2.0144701701332238e-09 -4.968727315558931e-16
248 5.03216299943448e-09 -1.117041222109275e-09 -2.318684156728707e-16
342 1.6697140198095019e-09 -2.333559250385932e-09 3.1228152441662416e-09
344 7.634801495450887e-10 -9.895804601517804e-10 -3.3237559357242602e-09
348 -5.740806649929187e-09 -1.7468306108088125e-09 -2.678719832927375e-09
232 3.109069439843161e-09 9.047113098723819e-11 -6.095882075625763e-16
247 9.047262678119048e-11 3.1090689501791917e-09 -1.3511097577513124e-15
326 7.472048741113161e-11 7.472079886833261e-11 1.970751701077793e-09
332 -1.6352314533423196e-09 1.1393179335479663e-09 -5.863611491972568e-09
347 1.1393177085762512e-09 -1.6352336893041472e-09 -5.863616154446069e-09
349 -4.312329539197879e-10 -4.3123196127289604e-10 3.745246597464721e-09
251 5.593386482541512e-09 -7.487962140953366e-09 -4.0724555511198085e-16
330 -1.4869280904931755e-09 3.0405893113817735e-09 -2.4200837326125665e-09
351 -3.1527867751336894e-09 4.1353060240712845e-09 -2.205849167219926e-09
252 -7.487959426583918e-09 5.5933862485871365e-09 1.7136730871329025e-15
346 3.0405877120174117e-09 -1.4869286644312806e-09 -2.420083299985538e-09
352 4.1353082158307514e-09 -3.152789740580334e-09 -2.205852336662334e-09
350 1.1394774218911631e-09 1.1394852277440936e-09 8.122320723379596e-09
236 -4.6627912349370085e-09 8.621818043582501e-09 1.0380525270114635e-15
255 -3.0323855192353617e-09 3.032382816026647e-09 1.55450702838999e-15
334 1.8339391917625948e-09 3.469897264734881e-09 6.577839852454746e-09
336 2.7405702663782728e-09 8.317680012471082e-10 -1.56793311280413e-09
353 -3.5198846312661017e-10 -8.62803390947036e-10 -2.1787307694657227e-09
355 2.0275608969225385e-09 -2.027566027687001e-09 -8.235146549927854e-10
256 5.069818065171978e-09 -5.069811504193247e-09 -6.071637979654883e-15
354 8.62800464820493e-10 3.5199273209868796e-10 -2.1787370950151356e-09
356 -5.162483774506407e-09 5.162480809114974e-09 5.38584585626772e-10
240 2.755312307344701e-10 -2.7552904903290917e-10 -8.6407523660846875e-16
259 1.6551656215941527e-09 -1.5934841495497073e-09 -2.3128453127228045e-15
338 2.612454632067724e-09 3.397675763905865e-10 6.548145423042987e-10
340 -3.749213127613493e-09 3.7492168200192405e-09 -5.2420550943607575e-09
357 -3.469896404638163e-09 -1.8339394173900678e-09 6.577838634733437e-09
359 2.795943052341125e-09 2.603619202548834e-09 -4.3793494305182046e-09
358 -1.3487814676043989e-11 -2.040833573299079e-09 2.64004681977043e-09
360 -8.317631850765732e-10 -2.7405690466600183e-09 -1.5679334200663888e-09
263 3.497119596555525e-09 2.0144745323575256e-09 -6.447640193615408e-16
264 -1.5319210782102616e-09 2.939963023451609e-09 -8.116177358866722e-16
268 -1.6551682315942613e-09 1.5934768469563197e-09 8.021273119937981e-16
361 -1.669715144404012e-09 2.3335563416469875e-09 3.122820449099663e-09
362 5.1592784206976995e-11 1.222200276770285e-09 2.1401275776014104e-09
363 -7.634793570831817e-10 9.895845978108262e-10 -3.323757506796936e-09
364 2.1303403923437437e-09 1.3882775715954637e-09 -1.4274529015060752e-09
365 1.3482809221110298e-11 2.040838805665066e-09 2.6400455555916314e-09
368 -2.795946781207414e-09 -2.6036207846867643e-09 -4.37935085529054e-09
267 8.621811675814287e-09 -4.6627898252843265e-09 1.4474300890435806e-15
272 3.0323838631621734e-09 -3.0323839936163365e-09 -2.2904431233783927e-15
366 3.46989513136495e-09 1.8339424570946623e-09 6.577839532405051e-09
367 8.317679308287154e-10 2.740569931250392e-09 -1.567933860728735e-09
369 -8.627955611114021e-10 -3.519929554851236e-10 -2.1787317478865226e-09
372 -2.0275631086795116e-09 2.0275623066534036e-09 -8.235151605547115e-10
370 3.5199310976322264e-10 8.627956851464736e-10 -2.1787324233505207e-09
371 5.162482739078552e-09 -5.162482032813442e-09 5.385773352422276e-10
275 7.487958366502091e-09 -5.593393300701944e-09 1.0020939048962504e-15
276 -5.593387739555e-09 7.487961136941476e-09 2.1543676665815343e-15
373 -1.1394842679720587e-09 -1.139479577953384e-09 8.122316784351761e-09
374 4.3123357728809383e-10 4.3123548461924365e-10 3.745253280196666e-09
375 -4.1353042842346635e-09 3.1527910314092193e-09 -2.2058532290645823e-09
376 3.1527864981215704e-09 -4.1353068690443965e-09 -2.205851715797053e-09
279 -5.032159986369943e-09 1.117041843936952e-09 1.197681364794276e-15
280 -9.046975648283727e-11 -3.109067288470895e-09 -1.0727264192547156e-15
377 -3.0405903680467668e-09 1.4869253767016285e-09 -2.420086087600703e-09
378 3.728450359978835e-09 2.5340953506499633e-09 2.3209174717550543e-09
379 5.7408072225227e-09 1.7468260672695251e-09 -2.678720143776747e-09
380 -1.1393232003755019e-09 1.6352327462042092e-09 -5.863615387945516e-09
203 4.5534839248520707e-10 -4.5535172618884845e-10 1.0428138556408822e-15
303 -1.6333638740647303e-09 1.6333658762909095e-09 4.334038358346398e-09
305 -1.0135653450451748e-10 -1.798037413317191e-09 -6.617929798340976e-10
283 9.639943271417469e-11 -5.188490411442343e-11 -1.3697567883198886e-15
288 -1.7572197465526507e-09 1.7572210571060536e-09 -1.4381286738741732e-15
381 2.3411988512033888e-09 -4.510425912356237e-10 -3.957249283937982e-10
382 1.7980390073031857e-09 1.013560511882187e-10 -6.617924063380504e-10
383 1.4022914667795258e-09 1.935526898515757e-09 2.2830702439758526e-09
384 1.3132452789642818e-09 2.2553192445051428e-09 2.9259367983972364e-09
385 -2.6124541175126887e-09 -3.397721602330934e-10 6.548181449263075e-10
388 5.259542036181645e-10 -5.259551453481845e-10 1.1666608675264619e-09
207 5.18839490858376e-11 -9.640288427681632e-11 -3.079287887926522e-15
287 -2.7552985907581486e-10 2.7552695886720043e-10 -1.9096887903215817e-16
292 -1.5934778178114881e-09 1.6551730269429063e-09 7.155438862501235e-16
386 3.397730990621105e-10 2.612453399942705e-09 6.548172523383563e-10
387 3.749215445436558e-09 -3.7492166594614744e-09 -5.2420581880004005e-09
389 -1.833943175612571e-09 -3.4698920046916135e-09 6.577843621143057e-09
392 2.603622874767578e-09 2.7959444781610446e-09 -4.379353220494351e-09
291 4.6627904044236894e-09 -8.621815812027435e-09 -3.3331142312557236e-15
390 -2.0408417475371838e-09 -1.3479762891740785e-11 2.6400492148384546e-09
391 -2.7405702078578178e-09 -8.317670528065271e-10 -1.5679292098914793e-09
295 -3.109071428782286e-09 -9.047445077757739e-11 5.702427796379458e-16
296 1.1170411448965492e-09 -5.032159587928702e-09 -2.3163817734456222e-15
393 1.486933105345134e-09 -3.0405893183073424e-09 -2.420083745284884e-09
394 2.5340884193342994e-09 3.728444295832811e-09 2.3209226999701755e-09
395 1.6352330126221885e-09 -1.1393235229693308e-09 -5.863618862766793e-09
396 1.746826946357069e-09 5.7408067099845526e-09 -2.6787202749481272e-09
301 4.732287868208135e-10 4.732297216252647e-10 -3.6156450584592023e-09
219 1.1161659053481438e-10 2.9253028005799734e-09 3.511410792697785e-16
284 2.92530571874948e-09 1.1162262535768534e-10 -5.186809060132692e-16
299 6.727638060886084e-09 -3.961368930610397e-10 2.3458522794691033e-15
300 -3.961306441349425e-10 6.7276383903663416e-09 3.371425889086249e-16
397 -7.472149136996696e-11 -7.47218408901684e-11 1.970754772615957e-09
398 1.7392216122407893e-09 1.7392192208565782e-09 -2.7397349075104736e-09
399 1.614178951865921e-09 -1.9912650583257275e-09 -5.20626277986989e-09
400 -1.9912681586229614e-09 1.6141752933973032e-09 -5.206255396738474e-09
401 2.6515167489665108e-09 2.651517166268876e-09 5.55266875690297e-09
402 -2.6515158176985204e-09 -2.6515171197054765e-09 5.5526685022777985e-09
403 -1.1110660198402324e-09 1.1110691174851207e-09 2.9326655249618717e-09
404 1.1110664701495646e-09 -1.1110704622243105e-09 2.932671362479705e-09
405 3.1019567832889276e-09 3.4812784527852814e-09 -2.164340536509151e-09
408 3.756190120356339e-09 -4.166174506179668e-09 2.472140186016078e-09
421 3.481277735473165e-09 3.1019591014389316e-09 -2.1643425558282236e-09
423 -4.16617113314211e-09 3.756192587037693e-09 2.4721399260862148e-09
425 -3.4956105427911096e-09 -3.495606642811695e-09 -1.7626667495316446e-09
406 1.2573528203061999e-09 -2.5475426455142174e-09 -2.008237929230374e-09
407 -4.2568675726314095e-10 3.0254111076759955e-09 2.714765917545898e-09
409 1.472846423312584e-09 -3.504532918849215e-10 -2.525425503232102e-10
412 1.0940590128317277e-09 -2.4557745320737293e-10 -1.1458524847012133e-10
427 3.818250787633558e-10 -2.7393730898562816e-09 3.411380849537605e-09
429 2.9736387013242157e-09 -1.915061262096137e-09 -7.075579222591861e-10
410 -1.393268807304703e-09 -1.0604769132463073e-09 -3.172553610927534e-09
414 -1.4728486890050871e-09 3.5045674317588195e-10 -2.52543292979962e-10
416 -8.267230000347848e-11 5.534329675949282e-10 -4.1280038477841333e-10
431 -1.0958869115372723e-09 9.122179063176363e-10 -4.403088725601998e-10
433 -2.403221627648868e-09 -2.8519329409618067e-09 -2.797136289553611e-10
435 -4.62754233160474e-09 9.032065658747671e-10 4.5988078110946016e-10
417 -1.2573558526462885e-09 2.5475325705086187e-09 -2.008238703395241e-09
418 -3.101956775331891e-09 -3.481274624566549e-09 -2.1643424562179133e-09
419 -3.756186461887721e-09 4.166169996759398e-09 2.4721446896988084e-09
420 4.256834294536008e-10 -3.0254012957657203e-09 2.71476493432578e-09
437 -5.717692400093918e-10 -4.725691695559018e-10 1.3018878510673054e-09
439 -1.1366236218639745e-09 1.1366191004989405e-09 6.969407793571472e-09
422 -2.5475413261959585e-09 1.2573517730441399e-09 -2.008237721880038e-09
424 3.0254095657791204e-09 -4.256862061646783e-10 2.7147613790879703e-09
428 -2.739376644017727e-09 3.8182151559268453e-10 3.411380926186247e-09
441 -3.504540510451567e-10 1.4728435399182747e-09 -2.5254320810490463e-10
443 -2.455742468163176e-10 1.0940593311131927e-09 -1.1458499325553916e-10
445 -1.915064143132806e-09 2.9736383747887066e-09 -7.075607205175313e-10
426 2.4325123283769494e-09 2.4325120087734487e-09 -1.5252357292834422e-09
432 -6.946527001556127e-10 -3.556176680603359e-10 7.666401171864233e-10
447 -3.5561638750238243e-10 -6.946480331947669e-10 7.666355122719112e-10
449 -5.804490182884251e-10 -5.804499425934418e-10 -4.33643173240624e-10
430 1.5025125662327372e-10 -1.140735111229256e-09 2.4888183383385926e-09
451 -2.7494334238252e-09 -1.28665604802605e-09 2.582952429336194e-09
446 -1.140733555499662e-09 1.5025190967126814e-10 2.4888259141143614e-09
452 -1.286659666797782e-09 -2.749432684051032e-09 2.5829471614648234e-09
450 -1.86948689482412e-09 -1.8694921180292553e-09 -4.46952268423994e-09
434 -6.894888903393179e-09 3.440668577882572e-09 2.4857420030852645e-09
436 -3.3302411622203485e-10 1.7461823613334251e-09 4.255777219529516e-09
453 1.248101792829424e-09 -2.3732839292425927e-09 2.810368874470181e-09
455 -1.643459907425825e-09 1.6434631462344369e-09 4.218160256311978e-09
454 2.3732825404449963e-09 -1.248101468493073e-09 2.810376622954627e-09
456 1.2328699841742745e-09 -1.2328651696115129e-09 -9.46325663705016e-10
438 4.725710033581391e-10 5.717697687102698e-10 1.3018834039679466e-09
440 -7.075607010331991e-10 7.075597962886642e-10 2.255616134508694e-09
457 -3.4406663467050968e-09 6.894884572987814e-09 2.4857450473747224e-09
459 -9.032094539843574e-10 4.627546877430294e-09 4.5988109025506834e-10
458 2.851930065819239e-09 2.4032222382812787e-09 -2.797097594779202e-10
460 -1.7461846210765697e-09 3.330242620158526e-10 4.255776598664235e-09
442 -1.060476006144132e-09 -1.3932705613892216e-09 -3.1725563233929085e-09
448 9.122189625405722e-10 -1.0958915944006793e-09 -4.403074905408198e-10
462 3.5045908048171466e-10 -1.4728454071695364e-09 -2.5253815096607103e-10
463 5.534331255568405e-10 -8.266550792674571e-11 -4.1279680116488085e-10
465 -2.8519311633008836e-09 -2.4032174419278595e-09 -2.797093846130836e-10
468 9.032026191846004e-10 -4.6275453800338825e-09 4.598735935477461e-10
466 3.440668526352932e-09 -6.894890723459398e-09 2.485746906192354e-09
467 1.746187680907115e-09 -3.330232933105199e-10 4.2557713835842104e-09
469 -2.373286117784804e-09 1.2481070368029467e-09 2.8103776737738694e-09
472 1.6434625261749902e-09 -1.6434678809659348e-09 4.218158903026341e-09
470 -1.2481017046991787e-09 2.373284486677214e-09 2.8103753577858033e-09
471 -1.2328701343326813e-09 1.232871402006498e-09 -9.463269251416764e-10
473 1.869487521802593e-09 1.869487320378227e-09 -4.469520448017943e-09
474 5.804525448114951e-10 5.804498974384794e-10 -4.3364151618774656e-10
475 1.2866554922123063e-09 2.7494300164452937e-09 2.582947823980218e-09
476 2.749430811264841e-09 1.2866573865764336e-09 2.5829487729305117e-09
444 -5.534383689492723e-10 8.266995679433501e-11 -4.1280043428886345e-10
461 1.0604770411483034e-09 1.3932675412517642e-09 -3.172550957403172e-09
464 2.455767518093296e-10 -1.0940598880873375e-09 -1.1458596725576324e-10
477 1.1407335945480825e-09 -1.5025435822826108e-10 2.4888199457474815e-09
478 1.9150642837071198e-09 -2.9736357673465457e-09 -7.075565374401081e-10
479 -9.122159223631708e-10 1.0958877022309488e-09 -4.4030861285136546e-10
480 3.556137602067704e-10 6.94657272190329e-10 7.666404189638116e-10
481 2.5475412295326988e-09 -1.257352142014875e-09 -2.0082386292769184e-09
482 -3.481277011677537e-09 -3.1019581807803234e-09 -2.1643405615590808e-09
483 -3.0254048787898424e-09 4.2568561380750723e-10 2.7147639910589194e-09
484 4.166170623302356e-09 -3.756189170816635e-09 2.4721391127002485e-09
485 -4.725708978537275e-10 -5.717722283187026e-10 1.3018869084531704e-09
488 1.1366168943368595e-09 -1.1366206848333444e-09 6.9694097071950355e-09
486 5.717715286888895e-10 4.725686645787811e-10 1.3018865749943947e-09
487 7.075602494391372e-10 -7.075567203391338e-10 2.255610180902501e-09
489 6.894887562770651e-09 -3.4406650558232567e-09 2.4857463143117765e-09
492 4.627544167175207e-09 -9.032097731499376e-10 4.5987490704819956e-10
490 2.403220754196384e-09 2.8519285368893867e-09 -2.7971359653780444e-10
491 3.3302620686791913e-10 -1.7461846900375539e-09 4.2557721586377975e-09
411 8.267065316958534e-11 -5.53429468267043e-10 -4.127984467979372e-10
413 1.3932684083367915e-09 1.0604769680614485e-09 -3.1725539020961338e-09
415 -1.09405863806244e-09 2.4556745239115387e-10 -1.1458643878385961e-10
493 -1.5025644953692324e-10 1.1407333195145851e-09 2.4888201865215156e-09
494 -2.9736321962856067e-09 1.915070919203367e-09 -7.075550376192875e-10
495 6.946581296495683e-10 3.556119996387406e-10 7.66636639076709e-10
496 1.0958896862345199e-09 -9.122117402036611e-10 -4.4030724608297234e-10
497 -2.4325139657624013e-09 -2.432512913290048e-09 -1.525228907156003e-09
498 3.495606601995044e-09 3.49561147464851e-09 -1.7626634229009246e-09
499 2.7393737794661224e-09 -3.8182609313817313e-10 3.4113798070000356e-09
500 -3.8182652576520156e-10 2.7393763294751168e-09 3.4113739421483077e-09
